query document relevance
stress 12 {'stress': 0.6243425995492111}
stress 28 {'stress': 0.6243425995492111}
stress 29 {'stress': 0.6243425995492111}
stress 30 {'stress': 0.6243425995492111}
stress 50 {'stress': 0.6243425995492111}
stress 65 {'stress': 0.6243425995492111}
stress 74 {'stress': 0.6243425995492111}
life 74 {'life': 0.5867768595041322}
stress 94 {'stress': 0.6243425995492111}
stress 98 {'stress': 0.6243425995492111}
stress 99 {'stress': 0.6243425995492111}
life 99 {'life': 0.5867768595041322}
stress 129 {'stress': 0.6243425995492111}
stress 131 {'stress': 0.6243425995492111}
stress 133 {'stress': 0.6243425995492111}
stress 161 {'stress': 0.6243425995492111}
stress 162 {'stress': 0.6243425995492111}
stress 182 {'stress': 0.6243425995492111}
stress 187 {'stress': 0.6243425995492111}
stress 190 {'stress': 0.6243425995492111}
stress 248 {'stress': 0.6243425995492111}
stress 250 {'stress': 0.6243425995492111}
stress 322 {'stress': 0.6243425995492111}
stress 341 {'stress': 0.6243425995492111}
stress 384 {'stress': 0.6243425995492111}
stress 390 {'stress': 0.6243425995492111}
stress 393 {'stress': 0.6243425995492111}
stress 405 {'stress': 0.6243425995492111}
stress 408 {'stress': 0.6243425995492111}
stress 411 {'stress': 0.6243425995492111}
stress 416 {'stress': 0.6243425995492111}
stress 487 {'stress': 0.6243425995492111}
stress 551 {'stress': 0.6243425995492111}
stress 568 {'stress': 0.6243425995492111}
stress 580 {'stress': 0.6243425995492111}
stress 584 {'stress': 0.6243425995492111}
stress 597 {'stress': 0.6243425995492111}
life 601 {'life': 0.5867768595041322}
stress 626 {'stress': 0.6243425995492111}
life 626 {'life': 0.5867768595041322}
stress 644 {'stress': 0.6243425995492111}
life 644 {'life': 0.5867768595041322}
stress 705 {'stress': 0.6243425995492111}
stress 707 {'stress': 0.6243425995492111}
life 708 {'life': 0.5867768595041322}
life 709 {'life': 0.5867768595041322}
stress 710 {'stress': 0.6243425995492111}
stress 711 {'stress': 0.6243425995492111}
stress 712 {'stress': 0.6243425995492111}
life 712 {'life': 0.5867768595041322}
stress 714 {'stress': 0.6243425995492111}
stress 715 {'stress': 0.6243425995492111}
stress 717 {'stress': 0.6243425995492111}
stress 718 {'stress': 0.6243425995492111}
stress 719 {'stress': 0.6243425995492111}
stress 721 {'stress': 0.6243425995492111}
stress 725 {'stress': 0.6243425995492111}
stress 726 {'stress': 0.6243425995492111}
stress 727 {'stress': 0.6243425995492111}
stress 745 {'stress': 0.6243425995492111}
stress 747 {'stress': 0.6243425995492111}
stress 749 {'stress': 0.6243425995492111}
stress 750 {'stress': 0.6243425995492111}
stress 751 {'stress': 0.6243425995492111}
life 752 {'life': 0.5867768595041322}
stress 753 {'stress': 0.6243425995492111}
stress 801 {'stress': 0.6243425995492111}
stress 802 {'stress': 0.6243425995492111}
stress 803 {'stress': 0.6243425995492111}
stress 804 {'stress': 0.6243425995492111}
stress 806 {'stress': 0.6243425995492111}
stress 809 {'stress': 0.6243425995492111}
stress 810 {'stress': 0.6243425995492111}
stress 812 {'stress': 0.6243425995492111}
stress 814 {'stress': 0.6243425995492111}
stress 817 {'stress': 0.6243425995492111}
stress 820 {'stress': 0.6243425995492111}
stress 821 {'stress': 0.6243425995492111}
stress 823 {'stress': 0.6243425995492111}
stress 824 {'stress': 0.6243425995492111}
stress 825 {'stress': 0.6243425995492111}
stress 827 {'stress': 0.6243425995492111}
stress 834 {'stress': 0.6243425995492111}
stress 835 {'stress': 0.6243425995492111}
stress 837 {'stress': 0.6243425995492111}
stress 841 {'stress': 0.6243425995492111}
stress 842 {'stress': 0.6243425995492111}
life 847 {'life': 0.5867768595041322}
stress 849 {'stress': 0.6243425995492111}
stress 851 {'stress': 0.6243425995492111}
stress 852 {'stress': 0.6243425995492111}
stress 853 {'stress': 0.6243425995492111}
stress 856 {'stress': 0.6243425995492111}
stress 859 {'stress': 0.6243425995492111}
stress 863 {'stress': 0.6243425995492111}
life 863 {'life': 0.5867768595041322}
life 864 {'life': 0.5867768595041322}
stress 865 {'stress': 0.6243425995492111}
stress 867 {'stress': 0.6243425995492111}
stress 869 {'stress': 0.6243425995492111}
stress 870 {'stress': 0.6243425995492111}
stress 871 {'stress': 0.6243425995492111}
stress 872 {'stress': 0.6243425995492111}
stress 879 {'stress': 0.6243425995492111}
stress 891 {'stress': 0.6243425995492111}
life 891 {'life': 0.5867768595041322}
stress 910 {'stress': 0.6243425995492111}
stress 912 {'stress': 0.6243425995492111}
stress 917 {'stress': 0.6243425995492111}
stress 920 {'stress': 0.6243425995492111}
stress 935 {'stress': 0.6243425995492111}
stress 936 {'stress': 0.6243425995492111}
stress 993 {'stress': 0.6243425995492111}
stress 996 {'stress': 0.6243425995492111}
stress 999 {'stress': 0.6243425995492111}
stress 1000 {'stress': 0.6243425995492111}
stress 1006 {'stress': 0.6243425995492111}
stress 1008 {'stress': 0.6243425995492111}
stress 1012 {'stress': 0.6243425995492111}
stress 1015 {'stress': 0.6243425995492111}
stress 1017 {'stress': 0.6243425995492111}
stress 1018 {'stress': 0.6243425995492111}
stress 1019 {'stress': 0.6243425995492111}
stress 1020 {'stress': 0.6243425995492111}
stress 1022 {'stress': 0.6243425995492111}
stress 1023 {'stress': 0.6243425995492111}
stress 1024 {'stress': 0.6243425995492111}
stress 1025 {'stress': 0.6243425995492111}
stress 1027 {'stress': 0.6243425995492111}
stress 1034 {'stress': 0.6243425995492111}
stress 1036 {'stress': 0.6243425995492111}
stress 1039 {'stress': 0.6243425995492111}
stress 1040 {'stress': 0.6243425995492111}
stress 1049 {'stress': 0.6243425995492111}
stress 1052 {'stress': 0.6243425995492111}
stress 1097 {'stress': 0.6243425995492111}
stress 1104 {'stress': 0.6243425995492111}
stress 1108 {'stress': 0.6243425995492111}
stress 1109 {'stress': 0.6243425995492111}
stress 1115 {'stress': 0.6243425995492111}
stress 1117 {'stress': 0.6243425995492111}
stress 1127 {'stress': 0.6243425995492111}
stress 1152 {'stress': 0.6243425995492111}
stress 1153 {'stress': 0.6243425995492111}
stress 1155 {'stress': 0.6243425995492111}
stress 1157 {'stress': 0.6243425995492111}
stress 1158 {'stress': 0.6243425995492111}
stress 1206 {'stress': 0.6243425995492111}
stress 1223 {'stress': 0.6243425995492111}
stress 1254 {'stress': 0.6243425995492111}
stress 1260 {'stress': 0.6243425995492111}
stress 1301 {'stress': 0.6243425995492111}
stress 1341 {'stress': 0.6243425995492111}
stress 1359 {'stress': 0.6243425995492111}
stress 1366 {'stress': 0.6243425995492111}
stress 1376 {'stress': 0.6243425995492111}
stress 1377 {'stress': 0.6243425995492111}
stress 1378 {'stress': 0.6243425995492111}
stress 1379 {'stress': 0.6243425995492111}
stress 601 {'stress': 0.5}
stress 708 {'stress': 0.5}
stress 709 {'stress': 0.5}
stress 752 {'stress': 0.5}
stress 847 {'stress': 0.5}
stress 864 {'stress': 0.5}
life 12 {'life': 0.5}
life 28 {'life': 0.5}
life 29 {'life': 0.5}
life 30 {'life': 0.5}
life 50 {'life': 0.5}
life 65 {'life': 0.5}
life 94 {'life': 0.5}
life 98 {'life': 0.5}
life 129 {'life': 0.5}
life 131 {'life': 0.5}
life 133 {'life': 0.5}
life 161 {'life': 0.5}
life 162 {'life': 0.5}
life 182 {'life': 0.5}
life 187 {'life': 0.5}
life 190 {'life': 0.5}
life 248 {'life': 0.5}
life 250 {'life': 0.5}
life 322 {'life': 0.5}
life 341 {'life': 0.5}
life 384 {'life': 0.5}
life 390 {'life': 0.5}
life 393 {'life': 0.5}
life 405 {'life': 0.5}
life 408 {'life': 0.5}
life 411 {'life': 0.5}
life 416 {'life': 0.5}
life 487 {'life': 0.5}
life 551 {'life': 0.5}
life 568 {'life': 0.5}
life 580 {'life': 0.5}
life 584 {'life': 0.5}
life 597 {'life': 0.5}
life 705 {'life': 0.5}
life 707 {'life': 0.5}
life 710 {'life': 0.5}
life 711 {'life': 0.5}
life 714 {'life': 0.5}
life 715 {'life': 0.5}
life 717 {'life': 0.5}
life 718 {'life': 0.5}
life 719 {'life': 0.5}
life 721 {'life': 0.5}
life 725 {'life': 0.5}
life 726 {'life': 0.5}
life 727 {'life': 0.5}
life 745 {'life': 0.5}
life 747 {'life': 0.5}
life 749 {'life': 0.5}
life 750 {'life': 0.5}
life 751 {'life': 0.5}
life 753 {'life': 0.5}
life 801 {'life': 0.5}
life 802 {'life': 0.5}
life 803 {'life': 0.5}
life 804 {'life': 0.5}
life 806 {'life': 0.5}
life 809 {'life': 0.5}
life 810 {'life': 0.5}
life 812 {'life': 0.5}
life 814 {'life': 0.5}
life 817 {'life': 0.5}
life 820 {'life': 0.5}
life 821 {'life': 0.5}
life 823 {'life': 0.5}
life 824 {'life': 0.5}
life 825 {'life': 0.5}
life 827 {'life': 0.5}
life 834 {'life': 0.5}
life 835 {'life': 0.5}
life 837 {'life': 0.5}
life 841 {'life': 0.5}
life 842 {'life': 0.5}
life 849 {'life': 0.5}
life 851 {'life': 0.5}
life 852 {'life': 0.5}
life 853 {'life': 0.5}
life 856 {'life': 0.5}
life 859 {'life': 0.5}
life 865 {'life': 0.5}
life 867 {'life': 0.5}
life 869 {'life': 0.5}
life 870 {'life': 0.5}
life 871 {'life': 0.5}
life 872 {'life': 0.5}
life 879 {'life': 0.5}
life 910 {'life': 0.5}
life 912 {'life': 0.5}
life 917 {'life': 0.5}
life 920 {'life': 0.5}
life 935 {'life': 0.5}
life 936 {'life': 0.5}
life 993 {'life': 0.5}
life 996 {'life': 0.5}
life 999 {'life': 0.5}
life 1000 {'life': 0.5}
life 1006 {'life': 0.5}
life 1008 {'life': 0.5}
life 1012 {'life': 0.5}
life 1015 {'life': 0.5}
life 1017 {'life': 0.5}
life 1018 {'life': 0.5}
life 1019 {'life': 0.5}
life 1020 {'life': 0.5}
life 1022 {'life': 0.5}
life 1023 {'life': 0.5}
life 1024 {'life': 0.5}
life 1025 {'life': 0.5}
life 1027 {'life': 0.5}
life 1034 {'life': 0.5}
life 1036 {'life': 0.5}
life 1039 {'life': 0.5}
life 1040 {'life': 0.5}
life 1049 {'life': 0.5}
life 1052 {'life': 0.5}
life 1097 {'life': 0.5}
life 1104 {'life': 0.5}
life 1108 {'life': 0.5}
life 1109 {'life': 0.5}
life 1115 {'life': 0.5}
life 1117 {'life': 0.5}
life 1127 {'life': 0.5}
life 1152 {'life': 0.5}
life 1153 {'life': 0.5}
life 1155 {'life': 0.5}
life 1157 {'life': 0.5}
life 1158 {'life': 0.5}
life 1206 {'life': 0.5}
life 1223 {'life': 0.5}
life 1254 {'life': 0.5}
life 1260 {'life': 0.5}
life 1301 {'life': 0.5}
life 1341 {'life': 0.5}
life 1359 {'life': 0.5}
life 1366 {'life': 0.5}
life 1376 {'life': 0.5}
life 1377 {'life': 0.5}
life 1378 {'life': 0.5}
life 1379 {'life': 0.5}
problem 0 {'problem': 0.5}
problem 1 {'problem': 0.5}
problem 3 {'problem': 0.5}
problem 5 {'problem': 0.5}
problem 10 {'problem': 0.5}
problem 11 {'problem': 0.5}
problem 12 {'problem': 0.5454545454545454}
problem 13 {'problem': 0.5}
problem 14 {'problem': 0.5}
problem 25 {'problem': 0.5}
problem 27 {'problem': 0.5}
problem 32 {'problem': 0.5}
problem 33 {'problem': 0.5}
problem 34 {'problem': 0.5}
problem 43 {'problem': 0.5}
problem 45 {'problem': 0.5}
problem 50 {'problem': 0.5454545454545454}
problem 59 {'problem': 0.5}
problem 71 {'problem': 0.5}
problem 72 {'problem': 0.5}
problem 74 {'problem': 0.5454545454545454}
problem 80 {'problem': 0.5}
problem 81 {'problem': 0.5}
problem 86 {'problem': 0.5}
problem 91 {'problem': 0.5}
problem 92 {'problem': 0.5}
problem 96 {'problem': 0.5}
problem 97 {'problem': 0.5}
problem 98 {'problem': 0.5454545454545454}
problem 106 {'problem': 0.5}
problem 108 {'problem': 0.5}
problem 113 {'problem': 0.5}
problem 128 {'problem': 0.5}
problem 140 {'problem': 0.5}
problem 142 {'problem': 0.5}
problem 143 {'problem': 0.5}
problem 147 {'problem': 0.5}
problem 152 {'problem': 0.5}
problem 154 {'problem': 0.5}
problem 156 {'problem': 0.5}
problem 157 {'problem': 0.5}
problem 160 {'problem': 0.5}
problem 168 {'problem': 0.5}
problem 177 {'problem': 0.5}
problem 181 {'problem': 0.5}
problem 196 {'problem': 0.5}
problem 201 {'problem': 0.5}
problem 239 {'problem': 0.5}
problem 255 {'problem': 0.5}
problem 257 {'problem': 0.5}
problem 259 {'problem': 0.5}
problem 267 {'problem': 0.5}
problem 274 {'problem': 0.5}
problem 277 {'problem': 0.5}
problem 278 {'problem': 0.5}
problem 286 {'problem': 0.5}
problem 290 {'problem': 0.5}
problem 293 {'problem': 0.5}
problem 297 {'problem': 0.5}
problem 298 {'problem': 0.5}
problem 313 {'problem': 0.5}
problem 314 {'problem': 0.5}
problem 315 {'problem': 0.5}
problem 316 {'problem': 0.5}
problem 322 {'problem': 0.5454545454545454}
problem 329 {'problem': 0.5}
problem 335 {'problem': 0.5}
problem 337 {'problem': 0.5}
problem 340 {'problem': 0.5}
problem 342 {'problem': 0.5}
problem 343 {'problem': 0.5}
problem 344 {'problem': 0.5}
problem 355 {'problem': 0.5}
problem 356 {'problem': 0.5}
problem 357 {'problem': 0.5}
problem 358 {'problem': 0.5}
problem 359 {'problem': 0.5}
problem 361 {'problem': 0.5}
problem 362 {'problem': 0.5}
problem 367 {'problem': 0.5}
problem 368 {'problem': 0.5}
problem 372 {'problem': 0.5}
problem 378 {'problem': 0.5}
problem 381 {'problem': 0.5}
problem 382 {'problem': 0.5}
problem 383 {'problem': 0.5}
problem 384 {'problem': 0.5454545454545454}
problem 388 {'problem': 0.5}
problem 391 {'problem': 0.5}
problem 394 {'problem': 0.5}
problem 397 {'problem': 0.5}
problem 399 {'problem': 0.5}
problem 402 {'problem': 0.5}
problem 403 {'problem': 0.5}
problem 406 {'problem': 0.5}
problem 409 {'problem': 0.5}
problem 414 {'problem': 0.5}
problem 416 {'problem': 0.5454545454545454}
problem 417 {'problem': 0.5}
problem 421 {'problem': 0.5}
problem 424 {'problem': 0.5}
problem 433 {'problem': 0.5}
problem 436 {'problem': 0.5}
problem 437 {'problem': 0.5}
problem 440 {'problem': 0.5}
problem 441 {'problem': 0.5}
problem 443 {'problem': 0.5}
problem 447 {'problem': 0.5}
problem 450 {'problem': 0.5}
problem 454 {'problem': 0.5}
problem 463 {'problem': 0.5}
problem 466 {'problem': 0.5}
problem 470 {'problem': 0.5}
problem 476 {'problem': 0.5}
problem 489 {'problem': 0.5}
problem 494 {'problem': 0.5}
problem 508 {'problem': 0.5}
problem 517 {'problem': 0.5}
problem 522 {'problem': 0.5}
problem 523 {'problem': 0.5}
problem 527 {'problem': 0.5}
problem 530 {'problem': 0.5}
problem 532 {'problem': 0.5}
problem 540 {'problem': 0.5}
problem 541 {'problem': 0.5}
problem 543 {'problem': 0.5}
problem 549 {'problem': 0.5}
problem 558 {'problem': 0.5}
problem 560 {'problem': 0.5}
problem 562 {'problem': 0.5}
problem 563 {'problem': 0.5}
problem 564 {'problem': 0.5}
problem 565 {'problem': 0.5}
problem 566 {'problem': 0.5}
problem 567 {'problem': 0.5}
problem 571 {'problem': 0.5}
problem 572 {'problem': 0.5}
problem 573 {'problem': 0.5}
problem 575 {'problem': 0.5}
problem 576 {'problem': 0.5}
problem 578 {'problem': 0.5}
problem 587 {'problem': 0.5}
problem 589 {'problem': 0.5}
problem 593 {'problem': 0.5}
problem 611 {'problem': 0.5}
problem 613 {'problem': 0.5}
problem 626 {'problem': 0.5454545454545454}
problem 627 {'problem': 0.5}
problem 630 {'problem': 0.5}
problem 634 {'problem': 0.5}
problem 635 {'problem': 0.5}
problem 636 {'problem': 0.5}
problem 642 {'problem': 0.5}
problem 644 {'problem': 0.5454545454545454}
problem 648 {'problem': 0.5}
problem 651 {'problem': 0.5}
problem 653 {'problem': 0.5}
problem 658 {'problem': 0.5}
problem 663 {'problem': 0.5}
problem 670 {'problem': 0.5}
problem 680 {'problem': 0.5}
problem 685 {'problem': 0.5}
problem 691 {'problem': 0.5}
problem 692 {'problem': 0.5}
problem 700 {'problem': 0.5}
problem 709 {'problem': 0.5}
problem 711 {'problem': 0.5454545454545454}
problem 715 {'problem': 0.5454545454545454}
problem 716 {'problem': 0.5}
problem 717 {'problem': 0.5454545454545454}
problem 718 {'problem': 0.5454545454545454}
problem 719 {'problem': 0.5454545454545454}
problem 721 {'problem': 0.5454545454545454}
problem 723 {'problem': 0.5}
problem 725 {'problem': 0.5454545454545454}
problem 730 {'problem': 0.5}
problem 731 {'problem': 0.5}
problem 741 {'problem': 0.5}
problem 753 {'problem': 0.5454545454545454}
problem 761 {'problem': 0.5}
problem 762 {'problem': 0.5}
problem 766 {'problem': 0.5}
problem 769 {'problem': 0.5}
problem 770 {'problem': 0.5}
problem 771 {'problem': 0.5}
problem 776 {'problem': 0.5}
problem 782 {'problem': 0.5}
problem 794 {'problem': 0.5}
problem 802 {'problem': 0.5454545454545454}
problem 810 {'problem': 0.5454545454545454}
problem 811 {'problem': 0.5}
problem 812 {'problem': 0.5454545454545454}
problem 815 {'problem': 0.5}
problem 817 {'problem': 0.5454545454545454}
problem 819 {'problem': 0.5}
problem 821 {'problem': 0.5454545454545454}
problem 824 {'problem': 0.5454545454545454}
problem 827 {'problem': 0.5454545454545454}
problem 837 {'problem': 0.5454545454545454}
problem 838 {'problem': 0.5}
problem 846 {'problem': 0.5}
problem 852 {'problem': 0.5454545454545454}
problem 862 {'problem': 0.5}
problem 868 {'problem': 0.5}
problem 869 {'problem': 0.5454545454545454}
problem 871 {'problem': 0.5454545454545454}
problem 874 {'problem': 0.5}
problem 878 {'problem': 0.5}
problem 881 {'problem': 0.5}
problem 883 {'problem': 0.5}
problem 890 {'problem': 0.5}
problem 891 {'problem': 0.5454545454545454}
problem 894 {'problem': 0.5}
problem 903 {'problem': 0.5}
problem 909 {'problem': 0.5}
problem 910 {'problem': 0.5454545454545454}
problem 911 {'problem': 0.5}
problem 912 {'problem': 0.5454545454545454}
problem 915 {'problem': 0.5}
problem 916 {'problem': 0.5}
problem 918 {'problem': 0.5}
problem 919 {'problem': 0.5}
problem 920 {'problem': 0.5454545454545454}
problem 922 {'problem': 0.5}
problem 939 {'problem': 0.5}
problem 945 {'problem': 0.5}
problem 962 {'problem': 0.5}
problem 963 {'problem': 0.5}
problem 964 {'problem': 0.5}
problem 965 {'problem': 0.5}
problem 969 {'problem': 0.5}
problem 978 {'problem': 0.5}
problem 983 {'problem': 0.5}
problem 989 {'problem': 0.5}
problem 994 {'problem': 0.5}
problem 995 {'problem': 0.5}
problem 1010 {'problem': 0.5}
problem 1011 {'problem': 0.5}
problem 1012 {'problem': 0.5454545454545454}
problem 1013 {'problem': 0.5}
problem 1016 {'problem': 0.5}
problem 1017 {'problem': 0.5454545454545454}
problem 1023 {'problem': 0.5454545454545454}
problem 1024 {'problem': 0.5454545454545454}
problem 1028 {'problem': 0.5}
problem 1032 {'problem': 0.5}
problem 1033 {'problem': 0.5}
problem 1034 {'problem': 0.5454545454545454}
problem 1036 {'problem': 0.5454545454545454}
problem 1037 {'problem': 0.5}
problem 1042 {'problem': 0.5}
problem 1049 {'problem': 0.5454545454545454}
problem 1053 {'problem': 0.5}
problem 1061 {'problem': 0.5}
problem 1064 {'problem': 0.5}
problem 1068 {'problem': 0.5}
problem 1069 {'problem': 0.5}
problem 1070 {'problem': 0.5}
problem 1089 {'problem': 0.5}
problem 1100 {'problem': 0.5}
problem 1103 {'problem': 0.5}
problem 1110 {'problem': 0.5}
problem 1118 {'problem': 0.5}
problem 1119 {'problem': 0.5}
problem 1128 {'problem': 0.5}
problem 1129 {'problem': 0.5}
problem 1131 {'problem': 0.5}
problem 1149 {'problem': 0.5}
problem 1153 {'problem': 0.5454545454545454}
problem 1159 {'problem': 0.5}
problem 1161 {'problem': 0.5}
problem 1165 {'problem': 0.5}
problem 1170 {'problem': 0.5}
problem 1177 {'problem': 0.5}
problem 1178 {'problem': 0.5}
problem 1181 {'problem': 0.5}
problem 1182 {'problem': 0.5}
problem 1186 {'problem': 0.5}
problem 1189 {'problem': 0.5}
problem 1190 {'problem': 0.5}
problem 1196 {'problem': 0.5}
problem 1198 {'problem': 0.5}
problem 1203 {'problem': 0.5}
problem 1212 {'problem': 0.5}
problem 1214 {'problem': 0.5}
problem 1218 {'problem': 0.5}
problem 1219 {'problem': 0.5}
problem 1225 {'problem': 0.5}
problem 1227 {'problem': 0.5}
problem 1232 {'problem': 0.5}
problem 1234 {'problem': 0.5}
problem 1242 {'problem': 0.5}
problem 1244 {'problem': 0.5}
problem 1252 {'problem': 0.5}
problem 1258 {'problem': 0.5}
problem 1259 {'problem': 0.5}
problem 1260 {'problem': 0.5454545454545454}
problem 1262 {'problem': 0.5}
problem 1272 {'problem': 0.5}
problem 1273 {'problem': 0.5}
problem 1274 {'problem': 0.5}
problem 1280 {'problem': 0.5}
problem 1288 {'problem': 0.5}
problem 1290 {'problem': 0.5}
problem 1299 {'problem': 0.5}
problem 1309 {'problem': 0.5}
problem 1312 {'problem': 0.5}
problem 1324 {'problem': 0.5}
problem 1340 {'problem': 0.5}
problem 1341 {'problem': 0.5454545454545454}
problem 1349 {'problem': 0.5}
problem 1354 {'problem': 0.5}
problem 1355 {'problem': 0.5}
problem 1356 {'problem': 0.5}
problem 1358 {'problem': 0.5}
problem 1359 {'problem': 0.5454545454545454}
problem 1368 {'problem': 0.5}
problem 1369 {'problem': 0.5}
problem 1371 {'problem': 0.5}
problem 1377 {'problem': 0.5454545454545454}
problem 28 {'problem': 0.5}
problem 29 {'problem': 0.5}
problem 30 {'problem': 0.5}
problem 65 {'problem': 0.5}
problem 94 {'problem': 0.5}
problem 99 {'problem': 0.5}
problem 129 {'problem': 0.5}
problem 131 {'problem': 0.5}
problem 133 {'problem': 0.5}
problem 161 {'problem': 0.5}
problem 162 {'problem': 0.5}
problem 182 {'problem': 0.5}
problem 187 {'problem': 0.5}
problem 190 {'problem': 0.5}
problem 248 {'problem': 0.5}
problem 250 {'problem': 0.5}
problem 341 {'problem': 0.5}
problem 390 {'problem': 0.5}
problem 393 {'problem': 0.5}
problem 405 {'problem': 0.5}
problem 408 {'problem': 0.5}
problem 411 {'problem': 0.5}
problem 487 {'problem': 0.5}
problem 551 {'problem': 0.5}
problem 568 {'problem': 0.5}
problem 580 {'problem': 0.5}
problem 584 {'problem': 0.5}
problem 597 {'problem': 0.5}
problem 705 {'problem': 0.5}
problem 707 {'problem': 0.5}
problem 710 {'problem': 0.5}
problem 712 {'problem': 0.5}
problem 714 {'problem': 0.5}
problem 726 {'problem': 0.5}
problem 727 {'problem': 0.5}
problem 745 {'problem': 0.5}
problem 747 {'problem': 0.5}
problem 749 {'problem': 0.5}
problem 750 {'problem': 0.5}
problem 751 {'problem': 0.5}
problem 801 {'problem': 0.5}
problem 803 {'problem': 0.5}
problem 804 {'problem': 0.5}
problem 806 {'problem': 0.5}
problem 809 {'problem': 0.5}
problem 814 {'problem': 0.5}
problem 820 {'problem': 0.5}
problem 823 {'problem': 0.5}
problem 825 {'problem': 0.5}
problem 834 {'problem': 0.5}
problem 835 {'problem': 0.5}
problem 841 {'problem': 0.5}
problem 842 {'problem': 0.5}
problem 849 {'problem': 0.5}
problem 851 {'problem': 0.5}
problem 853 {'problem': 0.5}
problem 856 {'problem': 0.5}
problem 859 {'problem': 0.5}
problem 863 {'problem': 0.5}
problem 865 {'problem': 0.5}
problem 867 {'problem': 0.5}
problem 870 {'problem': 0.5}
problem 872 {'problem': 0.5}
problem 879 {'problem': 0.5}
problem 917 {'problem': 0.5}
problem 935 {'problem': 0.5}
problem 936 {'problem': 0.5}
problem 993 {'problem': 0.5}
problem 996 {'problem': 0.5}
problem 999 {'problem': 0.5}
problem 1000 {'problem': 0.5}
problem 1006 {'problem': 0.5}
problem 1008 {'problem': 0.5}
problem 1015 {'problem': 0.5}
problem 1018 {'problem': 0.5}
problem 1019 {'problem': 0.5}
problem 1020 {'problem': 0.5}
problem 1022 {'problem': 0.5}
problem 1025 {'problem': 0.5}
problem 1027 {'problem': 0.5}
problem 1039 {'problem': 0.5}
problem 1040 {'problem': 0.5}
problem 1052 {'problem': 0.5}
problem 1097 {'problem': 0.5}
problem 1104 {'problem': 0.5}
problem 1108 {'problem': 0.5}
problem 1109 {'problem': 0.5}
problem 1115 {'problem': 0.5}
problem 1117 {'problem': 0.5}
problem 1127 {'problem': 0.5}
problem 1152 {'problem': 0.5}
problem 1155 {'problem': 0.5}
problem 1157 {'problem': 0.5}
problem 1158 {'problem': 0.5}
problem 1206 {'problem': 0.5}
problem 1223 {'problem': 0.5}
problem 1254 {'problem': 0.5}
problem 1301 {'problem': 0.5}
problem 1366 {'problem': 0.5}
problem 1376 {'problem': 0.5}
problem 1378 {'problem': 0.5}
problem 1379 {'problem': 0.5}
work 18 {'work': 0.5454545454545454}
work 27 {'work': 0.5454545454545454}
work 28 {'work': 0.5454545454545454}
work 33 {'work': 0.5454545454545454}
work 48 {'work': 0.5454545454545454}
work 94 {'work': 0.5454545454545454}
work 98 {'work': 0.5454545454545454}
work 107 {'work': 0.5454545454545454}
work 120 {'work': 0.5454545454545454}
work 121 {'work': 0.5454545454545454}
work 136 {'work': 0.5454545454545454}
work 137 {'work': 0.5454545454545454}
work 143 {'work': 0.5454545454545454}
work 145 {'work': 0.5454545454545454}
work 152 {'work': 0.5454545454545454}
work 180 {'work': 0.5454545454545454}
work 181 {'work': 0.5454545454545454}
work 191 {'work': 0.5454545454545454}
work 197 {'work': 0.5454545454545454}
work 202 {'work': 0.5454545454545454}
work 205 {'work': 0.5454545454545454}
work 206 {'work': 0.5454545454545454}
work 207 {'work': 0.5454545454545454}
work 235 {'work': 0.5454545454545454}
work 237 {'work': 0.5454545454545454}
work 238 {'work': 0.5454545454545454}
work 239 {'work': 0.5454545454545454}
work 247 {'work': 0.5454545454545454}
work 255 {'work': 0.5454545454545454}
work 287 {'work': 0.5454545454545454}
work 309 {'work': 0.5454545454545454}
work 321 {'work': 0.5454545454545454}
work 332 {'work': 0.5454545454545454}
work 337 {'work': 0.5454545454545454}
work 338 {'work': 0.5454545454545454}
work 354 {'work': 0.5454545454545454}
work 369 {'work': 0.5454545454545454}
work 393 {'work': 0.5454545454545454}
work 405 {'work': 0.5454545454545454}
work 406 {'work': 0.5454545454545454}
work 407 {'work': 0.5454545454545454}
work 409 {'work': 0.5454545454545454}
work 420 {'work': 0.5454545454545454}
work 422 {'work': 0.5454545454545454}
work 443 {'work': 0.5454545454545454}
work 449 {'work': 0.5454545454545454}
work 505 {'work': 0.5454545454545454}
work 510 {'work': 0.5454545454545454}
work 539 {'work': 0.5454545454545454}
work 563 {'work': 0.5454545454545454}
work 567 {'work': 0.5454545454545454}
work 591 {'work': 0.5454545454545454}
work 593 {'work': 0.5454545454545454}
work 595 {'work': 0.5454545454545454}
work 604 {'work': 0.5454545454545454}
work 626 {'work': 0.5454545454545454}
work 635 {'work': 0.5454545454545454}
work 642 {'work': 0.5454545454545454}
work 646 {'work': 0.5454545454545454}
work 658 {'work': 0.5454545454545454}
work 663 {'work': 0.5454545454545454}
work 705 {'work': 0.5454545454545454}
work 718 {'work': 0.5454545454545454}
work 725 {'work': 0.5454545454545454}
work 727 {'work': 0.5454545454545454}
work 733 {'work': 0.5454545454545454}
work 740 {'work': 0.5454545454545454}
work 745 {'work': 0.5454545454545454}
work 776 {'work': 0.5454545454545454}
work 782 {'work': 0.5454545454545454}
work 783 {'work': 0.5454545454545454}
work 784 {'work': 0.5454545454545454}
work 801 {'work': 0.5454545454545454}
work 810 {'work': 0.5454545454545454}
work 817 {'work': 0.5454545454545454}
work 852 {'work': 0.5454545454545454}
work 863 {'work': 0.5454545454545454}
work 880 {'work': 0.5454545454545454}
work 896 {'work': 0.5454545454545454}
work 899 {'work': 0.5454545454545454}
work 931 {'work': 0.5454545454545454}
work 950 {'work': 0.5454545454545454}
work 988 {'work': 0.5454545454545454}
work 994 {'work': 0.5454545454545454}
work 1016 {'work': 0.5454545454545454}
work 1027 {'work': 0.5454545454545454}
work 1028 {'work': 0.5454545454545454}
work 1035 {'work': 0.5454545454545454}
work 1039 {'work': 0.5454545454545454}
work 1049 {'work': 0.5454545454545454}
work 1061 {'work': 0.5454545454545454}
work 1063 {'work': 0.5454545454545454}
work 1064 {'work': 0.5454545454545454}
work 1106 {'work': 0.5454545454545454}
work 1127 {'work': 0.5454545454545454}
work 1140 {'work': 0.5454545454545454}
work 1168 {'work': 0.5454545454545454}
work 1170 {'work': 0.5454545454545454}
work 1247 {'work': 0.5454545454545454}
work 1265 {'work': 0.5454545454545454}
work 1288 {'work': 0.5454545454545454}
work 1289 {'work': 0.5454545454545454}
work 1294 {'work': 0.5454545454545454}
work 1295 {'work': 0.5454545454545454}
work 1301 {'work': 0.5454545454545454}
work 1322 {'work': 0.5454545454545454}
work 1339 {'work': 0.5454545454545454}
work 1362 {'work': 0.5454545454545454}
work 1364 {'work': 0.5454545454545454}
query document not relevance
stress 12 {'stress': 0.11750405186385737}
stress 28 {'stress': 0.11750405186385737}
stress 29 {'stress': 0.11750405186385737}
stress 30 {'stress': 0.11750405186385737}
stress 50 {'stress': 0.11750405186385737}
stress 65 {'stress': 0.11750405186385737}
stress 74 {'stress': 0.11750405186385737}
life 74 {'life': 0.009771986970684038}
stress 94 {'stress': 0.11750405186385737}
stress 98 {'stress': 0.11750405186385737}
stress 99 {'stress': 0.11750405186385737}
life 99 {'life': 0.009771986970684038}
stress 129 {'stress': 0.11750405186385737}
stress 131 {'stress': 0.11750405186385737}
stress 133 {'stress': 0.11750405186385737}
stress 161 {'stress': 0.11750405186385737}
stress 162 {'stress': 0.11750405186385737}
stress 182 {'stress': 0.11750405186385737}
stress 187 {'stress': 0.11750405186385737}
stress 190 {'stress': 0.11750405186385737}
stress 248 {'stress': 0.11750405186385737}
stress 250 {'stress': 0.11750405186385737}
stress 322 {'stress': 0.11750405186385737}
stress 341 {'stress': 0.11750405186385737}
stress 384 {'stress': 0.11750405186385737}
stress 390 {'stress': 0.11750405186385737}
stress 393 {'stress': 0.11750405186385737}
stress 405 {'stress': 0.11750405186385737}
stress 408 {'stress': 0.11750405186385737}
stress 411 {'stress': 0.11750405186385737}
stress 416 {'stress': 0.11750405186385737}
stress 487 {'stress': 0.11750405186385737}
stress 551 {'stress': 0.11750405186385737}
stress 568 {'stress': 0.11750405186385737}
stress 580 {'stress': 0.11750405186385737}
stress 584 {'stress': 0.11750405186385737}
stress 597 {'stress': 0.11750405186385737}
life 601 {'life': 0.009771986970684038}
stress 626 {'stress': 0.11750405186385737}
life 626 {'life': 0.009771986970684038}
stress 644 {'stress': 0.11750405186385737}
life 644 {'life': 0.009771986970684038}
stress 705 {'stress': 0.11750405186385737}
stress 707 {'stress': 0.11750405186385737}
life 708 {'life': 0.009771986970684038}
life 709 {'life': 0.009771986970684038}
stress 710 {'stress': 0.11750405186385737}
stress 711 {'stress': 0.11750405186385737}
stress 712 {'stress': 0.11750405186385737}
life 712 {'life': 0.009771986970684038}
stress 714 {'stress': 0.11750405186385737}
stress 715 {'stress': 0.11750405186385737}
stress 717 {'stress': 0.11750405186385737}
stress 718 {'stress': 0.11750405186385737}
stress 719 {'stress': 0.11750405186385737}
stress 721 {'stress': 0.11750405186385737}
stress 725 {'stress': 0.11750405186385737}
stress 726 {'stress': 0.11750405186385737}
stress 727 {'stress': 0.11750405186385737}
stress 745 {'stress': 0.11750405186385737}
stress 747 {'stress': 0.11750405186385737}
stress 749 {'stress': 0.11750405186385737}
stress 750 {'stress': 0.11750405186385737}
stress 751 {'stress': 0.11750405186385737}
life 752 {'life': 0.009771986970684038}
stress 753 {'stress': 0.11750405186385737}
stress 801 {'stress': 0.11750405186385737}
stress 802 {'stress': 0.11750405186385737}
stress 803 {'stress': 0.11750405186385737}
stress 804 {'stress': 0.11750405186385737}
stress 806 {'stress': 0.11750405186385737}
stress 809 {'stress': 0.11750405186385737}
stress 810 {'stress': 0.11750405186385737}
stress 812 {'stress': 0.11750405186385737}
stress 814 {'stress': 0.11750405186385737}
stress 817 {'stress': 0.11750405186385737}
stress 820 {'stress': 0.11750405186385737}
stress 821 {'stress': 0.11750405186385737}
stress 823 {'stress': 0.11750405186385737}
stress 824 {'stress': 0.11750405186385737}
stress 825 {'stress': 0.11750405186385737}
stress 827 {'stress': 0.11750405186385737}
stress 834 {'stress': 0.11750405186385737}
stress 835 {'stress': 0.11750405186385737}
stress 837 {'stress': 0.11750405186385737}
stress 841 {'stress': 0.11750405186385737}
stress 842 {'stress': 0.11750405186385737}
life 847 {'life': 0.009771986970684038}
stress 849 {'stress': 0.11750405186385737}
stress 851 {'stress': 0.11750405186385737}
stress 852 {'stress': 0.11750405186385737}
stress 853 {'stress': 0.11750405186385737}
stress 856 {'stress': 0.11750405186385737}
stress 859 {'stress': 0.11750405186385737}
stress 863 {'stress': 0.11750405186385737}
life 863 {'life': 0.009771986970684038}
life 864 {'life': 0.009771986970684038}
stress 865 {'stress': 0.11750405186385737}
stress 867 {'stress': 0.11750405186385737}
stress 869 {'stress': 0.11750405186385737}
stress 870 {'stress': 0.11750405186385737}
stress 871 {'stress': 0.11750405186385737}
stress 872 {'stress': 0.11750405186385737}
stress 879 {'stress': 0.11750405186385737}
stress 891 {'stress': 0.11750405186385737}
life 891 {'life': 0.009771986970684038}
stress 910 {'stress': 0.11750405186385737}
stress 912 {'stress': 0.11750405186385737}
stress 917 {'stress': 0.11750405186385737}
stress 920 {'stress': 0.11750405186385737}
stress 935 {'stress': 0.11750405186385737}
stress 936 {'stress': 0.11750405186385737}
stress 993 {'stress': 0.11750405186385737}
stress 996 {'stress': 0.11750405186385737}
stress 999 {'stress': 0.11750405186385737}
stress 1000 {'stress': 0.11750405186385737}
stress 1006 {'stress': 0.11750405186385737}
stress 1008 {'stress': 0.11750405186385737}
stress 1012 {'stress': 0.11750405186385737}
stress 1015 {'stress': 0.11750405186385737}
stress 1017 {'stress': 0.11750405186385737}
stress 1018 {'stress': 0.11750405186385737}
stress 1019 {'stress': 0.11750405186385737}
stress 1020 {'stress': 0.11750405186385737}
stress 1022 {'stress': 0.11750405186385737}
stress 1023 {'stress': 0.11750405186385737}
stress 1024 {'stress': 0.11750405186385737}
stress 1025 {'stress': 0.11750405186385737}
stress 1027 {'stress': 0.11750405186385737}
stress 1034 {'stress': 0.11750405186385737}
stress 1036 {'stress': 0.11750405186385737}
stress 1039 {'stress': 0.11750405186385737}
stress 1040 {'stress': 0.11750405186385737}
stress 1049 {'stress': 0.11750405186385737}
stress 1052 {'stress': 0.11750405186385737}
stress 1097 {'stress': 0.11750405186385737}
stress 1104 {'stress': 0.11750405186385737}
stress 1108 {'stress': 0.11750405186385737}
stress 1109 {'stress': 0.11750405186385737}
stress 1115 {'stress': 0.11750405186385737}
stress 1117 {'stress': 0.11750405186385737}
stress 1127 {'stress': 0.11750405186385737}
stress 1152 {'stress': 0.11750405186385737}
stress 1153 {'stress': 0.11750405186385737}
stress 1155 {'stress': 0.11750405186385737}
stress 1157 {'stress': 0.11750405186385737}
stress 1158 {'stress': 0.11750405186385737}
stress 1206 {'stress': 0.11750405186385737}
stress 1223 {'stress': 0.11750405186385737}
stress 1254 {'stress': 0.11750405186385737}
stress 1260 {'stress': 0.11750405186385737}
stress 1301 {'stress': 0.11750405186385737}
stress 1341 {'stress': 0.11750405186385737}
stress 1359 {'stress': 0.11750405186385737}
stress 1366 {'stress': 0.11750405186385737}
stress 1376 {'stress': 0.11750405186385737}
stress 1377 {'stress': 0.11750405186385737}
stress 1378 {'stress': 0.11750405186385737}
stress 1379 {'stress': 0.11750405186385737}
stress 601 {'stress': 0.11889250814332247}
stress 708 {'stress': 0.11889250814332247}
stress 709 {'stress': 0.11889250814332247}
stress 752 {'stress': 0.11889250814332247}
stress 847 {'stress': 0.11889250814332247}
stress 864 {'stress': 0.11889250814332247}
life 12 {'life': 0.010586319218241042}
life 28 {'life': 0.010586319218241042}
life 29 {'life': 0.010586319218241042}
life 30 {'life': 0.010586319218241042}
life 50 {'life': 0.010586319218241042}
life 65 {'life': 0.010586319218241042}
life 94 {'life': 0.010586319218241042}
life 98 {'life': 0.010586319218241042}
life 129 {'life': 0.010586319218241042}
life 131 {'life': 0.010586319218241042}
life 133 {'life': 0.010586319218241042}
life 161 {'life': 0.010586319218241042}
life 162 {'life': 0.010586319218241042}
life 182 {'life': 0.010586319218241042}
life 187 {'life': 0.010586319218241042}
life 190 {'life': 0.010586319218241042}
life 248 {'life': 0.010586319218241042}
life 250 {'life': 0.010586319218241042}
life 322 {'life': 0.010586319218241042}
life 341 {'life': 0.010586319218241042}
life 384 {'life': 0.010586319218241042}
life 390 {'life': 0.010586319218241042}
life 393 {'life': 0.010586319218241042}
life 405 {'life': 0.010586319218241042}
life 408 {'life': 0.010586319218241042}
life 411 {'life': 0.010586319218241042}
life 416 {'life': 0.010586319218241042}
life 487 {'life': 0.010586319218241042}
life 551 {'life': 0.010586319218241042}
life 568 {'life': 0.010586319218241042}
life 580 {'life': 0.010586319218241042}
life 584 {'life': 0.010586319218241042}
life 597 {'life': 0.010586319218241042}
life 705 {'life': 0.010586319218241042}
life 707 {'life': 0.010586319218241042}
life 710 {'life': 0.010586319218241042}
life 711 {'life': 0.010586319218241042}
life 714 {'life': 0.010586319218241042}
life 715 {'life': 0.010586319218241042}
life 717 {'life': 0.010586319218241042}
life 718 {'life': 0.010586319218241042}
life 719 {'life': 0.010586319218241042}
life 721 {'life': 0.010586319218241042}
life 725 {'life': 0.010586319218241042}
life 726 {'life': 0.010586319218241042}
life 727 {'life': 0.010586319218241042}
life 745 {'life': 0.010586319218241042}
life 747 {'life': 0.010586319218241042}
life 749 {'life': 0.010586319218241042}
life 750 {'life': 0.010586319218241042}
life 751 {'life': 0.010586319218241042}
life 753 {'life': 0.010586319218241042}
life 801 {'life': 0.010586319218241042}
life 802 {'life': 0.010586319218241042}
life 803 {'life': 0.010586319218241042}
life 804 {'life': 0.010586319218241042}
life 806 {'life': 0.010586319218241042}
life 809 {'life': 0.010586319218241042}
life 810 {'life': 0.010586319218241042}
life 812 {'life': 0.010586319218241042}
life 814 {'life': 0.010586319218241042}
life 817 {'life': 0.010586319218241042}
life 820 {'life': 0.010586319218241042}
life 821 {'life': 0.010586319218241042}
life 823 {'life': 0.010586319218241042}
life 824 {'life': 0.010586319218241042}
life 825 {'life': 0.010586319218241042}
life 827 {'life': 0.010586319218241042}
life 834 {'life': 0.010586319218241042}
life 835 {'life': 0.010586319218241042}
life 837 {'life': 0.010586319218241042}
life 841 {'life': 0.010586319218241042}
life 842 {'life': 0.010586319218241042}
life 849 {'life': 0.010586319218241042}
life 851 {'life': 0.010586319218241042}
life 852 {'life': 0.010586319218241042}
life 853 {'life': 0.010586319218241042}
life 856 {'life': 0.010586319218241042}
life 859 {'life': 0.010586319218241042}
life 865 {'life': 0.010586319218241042}
life 867 {'life': 0.010586319218241042}
life 869 {'life': 0.010586319218241042}
life 870 {'life': 0.010586319218241042}
life 871 {'life': 0.010586319218241042}
life 872 {'life': 0.010586319218241042}
life 879 {'life': 0.010586319218241042}
life 910 {'life': 0.010586319218241042}
life 912 {'life': 0.010586319218241042}
life 917 {'life': 0.010586319218241042}
life 920 {'life': 0.010586319218241042}
life 935 {'life': 0.010586319218241042}
life 936 {'life': 0.010586319218241042}
life 993 {'life': 0.010586319218241042}
life 996 {'life': 0.010586319218241042}
life 999 {'life': 0.010586319218241042}
life 1000 {'life': 0.010586319218241042}
life 1006 {'life': 0.010586319218241042}
life 1008 {'life': 0.010586319218241042}
life 1012 {'life': 0.010586319218241042}
life 1015 {'life': 0.010586319218241042}
life 1017 {'life': 0.010586319218241042}
life 1018 {'life': 0.010586319218241042}
life 1019 {'life': 0.010586319218241042}
life 1020 {'life': 0.010586319218241042}
life 1022 {'life': 0.010586319218241042}
life 1023 {'life': 0.010586319218241042}
life 1024 {'life': 0.010586319218241042}
life 1025 {'life': 0.010586319218241042}
life 1027 {'life': 0.010586319218241042}
life 1034 {'life': 0.010586319218241042}
life 1036 {'life': 0.010586319218241042}
life 1039 {'life': 0.010586319218241042}
life 1040 {'life': 0.010586319218241042}
life 1049 {'life': 0.010586319218241042}
life 1052 {'life': 0.010586319218241042}
life 1097 {'life': 0.010586319218241042}
life 1104 {'life': 0.010586319218241042}
life 1108 {'life': 0.010586319218241042}
life 1109 {'life': 0.010586319218241042}
life 1115 {'life': 0.010586319218241042}
life 1117 {'life': 0.010586319218241042}
life 1127 {'life': 0.010586319218241042}
life 1152 {'life': 0.010586319218241042}
life 1153 {'life': 0.010586319218241042}
life 1155 {'life': 0.010586319218241042}
life 1157 {'life': 0.010586319218241042}
life 1158 {'life': 0.010586319218241042}
life 1206 {'life': 0.010586319218241042}
life 1223 {'life': 0.010586319218241042}
life 1254 {'life': 0.010586319218241042}
life 1260 {'life': 0.010586319218241042}
life 1301 {'life': 0.010586319218241042}
life 1341 {'life': 0.010586319218241042}
life 1359 {'life': 0.010586319218241042}
life 1366 {'life': 0.010586319218241042}
life 1376 {'life': 0.010586319218241042}
life 1377 {'life': 0.010586319218241042}
life 1378 {'life': 0.010586319218241042}
life 1379 {'life': 0.010586319218241042}
problem 0 {'problem': 0.2318840579710145}
problem 1 {'problem': 0.2318840579710145}
problem 3 {'problem': 0.2318840579710145}
problem 5 {'problem': 0.2318840579710145}
problem 10 {'problem': 0.2318840579710145}
problem 11 {'problem': 0.2318840579710145}
problem 12 {'problem': 0.2585089141004862}
problem 13 {'problem': 0.2318840579710145}
problem 14 {'problem': 0.2318840579710145}
problem 25 {'problem': 0.2318840579710145}
problem 27 {'problem': 0.2318840579710145}
problem 32 {'problem': 0.2318840579710145}
problem 33 {'problem': 0.2318840579710145}
problem 34 {'problem': 0.2318840579710145}
problem 43 {'problem': 0.2318840579710145}
problem 45 {'problem': 0.2318840579710145}
problem 50 {'problem': 0.2585089141004862}
problem 59 {'problem': 0.2318840579710145}
problem 71 {'problem': 0.2318840579710145}
problem 72 {'problem': 0.2318840579710145}
problem 74 {'problem': 0.2585089141004862}
problem 80 {'problem': 0.2318840579710145}
problem 81 {'problem': 0.2318840579710145}
problem 86 {'problem': 0.2318840579710145}
problem 91 {'problem': 0.2318840579710145}
problem 92 {'problem': 0.2318840579710145}
problem 96 {'problem': 0.2318840579710145}
problem 97 {'problem': 0.2318840579710145}
problem 98 {'problem': 0.2585089141004862}
problem 106 {'problem': 0.2318840579710145}
problem 108 {'problem': 0.2318840579710145}
problem 113 {'problem': 0.2318840579710145}
problem 128 {'problem': 0.2318840579710145}
problem 140 {'problem': 0.2318840579710145}
problem 142 {'problem': 0.2318840579710145}
problem 143 {'problem': 0.2318840579710145}
problem 147 {'problem': 0.2318840579710145}
problem 152 {'problem': 0.2318840579710145}
problem 154 {'problem': 0.2318840579710145}
problem 156 {'problem': 0.2318840579710145}
problem 157 {'problem': 0.2318840579710145}
problem 160 {'problem': 0.2318840579710145}
problem 168 {'problem': 0.2318840579710145}
problem 177 {'problem': 0.2318840579710145}
problem 181 {'problem': 0.2318840579710145}
problem 196 {'problem': 0.2318840579710145}
problem 201 {'problem': 0.2318840579710145}
problem 239 {'problem': 0.2318840579710145}
problem 255 {'problem': 0.2318840579710145}
problem 257 {'problem': 0.2318840579710145}
problem 259 {'problem': 0.2318840579710145}
problem 267 {'problem': 0.2318840579710145}
problem 274 {'problem': 0.2318840579710145}
problem 277 {'problem': 0.2318840579710145}
problem 278 {'problem': 0.2318840579710145}
problem 286 {'problem': 0.2318840579710145}
problem 290 {'problem': 0.2318840579710145}
problem 293 {'problem': 0.2318840579710145}
problem 297 {'problem': 0.2318840579710145}
problem 298 {'problem': 0.2318840579710145}
problem 313 {'problem': 0.2318840579710145}
problem 314 {'problem': 0.2318840579710145}
problem 315 {'problem': 0.2318840579710145}
problem 316 {'problem': 0.2318840579710145}
problem 322 {'problem': 0.2585089141004862}
problem 329 {'problem': 0.2318840579710145}
problem 335 {'problem': 0.2318840579710145}
problem 337 {'problem': 0.2318840579710145}
problem 340 {'problem': 0.2318840579710145}
problem 342 {'problem': 0.2318840579710145}
problem 343 {'problem': 0.2318840579710145}
problem 344 {'problem': 0.2318840579710145}
problem 355 {'problem': 0.2318840579710145}
problem 356 {'problem': 0.2318840579710145}
problem 357 {'problem': 0.2318840579710145}
problem 358 {'problem': 0.2318840579710145}
problem 359 {'problem': 0.2318840579710145}
problem 361 {'problem': 0.2318840579710145}
problem 362 {'problem': 0.2318840579710145}
problem 367 {'problem': 0.2318840579710145}
problem 368 {'problem': 0.2318840579710145}
problem 372 {'problem': 0.2318840579710145}
problem 378 {'problem': 0.2318840579710145}
problem 381 {'problem': 0.2318840579710145}
problem 382 {'problem': 0.2318840579710145}
problem 383 {'problem': 0.2318840579710145}
problem 384 {'problem': 0.2585089141004862}
problem 388 {'problem': 0.2318840579710145}
problem 391 {'problem': 0.2318840579710145}
problem 394 {'problem': 0.2318840579710145}
problem 397 {'problem': 0.2318840579710145}
problem 399 {'problem': 0.2318840579710145}
problem 402 {'problem': 0.2318840579710145}
problem 403 {'problem': 0.2318840579710145}
problem 406 {'problem': 0.2318840579710145}
problem 409 {'problem': 0.2318840579710145}
problem 414 {'problem': 0.2318840579710145}
problem 416 {'problem': 0.2585089141004862}
problem 417 {'problem': 0.2318840579710145}
problem 421 {'problem': 0.2318840579710145}
problem 424 {'problem': 0.2318840579710145}
problem 433 {'problem': 0.2318840579710145}
problem 436 {'problem': 0.2318840579710145}
problem 437 {'problem': 0.2318840579710145}
problem 440 {'problem': 0.2318840579710145}
problem 441 {'problem': 0.2318840579710145}
problem 443 {'problem': 0.2318840579710145}
problem 447 {'problem': 0.2318840579710145}
problem 450 {'problem': 0.2318840579710145}
problem 454 {'problem': 0.2318840579710145}
problem 463 {'problem': 0.2318840579710145}
problem 466 {'problem': 0.2318840579710145}
problem 470 {'problem': 0.2318840579710145}
problem 476 {'problem': 0.2318840579710145}
problem 489 {'problem': 0.2318840579710145}
problem 494 {'problem': 0.2318840579710145}
problem 508 {'problem': 0.2318840579710145}
problem 517 {'problem': 0.2318840579710145}
problem 522 {'problem': 0.2318840579710145}
problem 523 {'problem': 0.2318840579710145}
problem 527 {'problem': 0.2318840579710145}
problem 530 {'problem': 0.2318840579710145}
problem 532 {'problem': 0.2318840579710145}
problem 540 {'problem': 0.2318840579710145}
problem 541 {'problem': 0.2318840579710145}
problem 543 {'problem': 0.2318840579710145}
problem 549 {'problem': 0.2318840579710145}
problem 558 {'problem': 0.2318840579710145}
problem 560 {'problem': 0.2318840579710145}
problem 562 {'problem': 0.2318840579710145}
problem 563 {'problem': 0.2318840579710145}
problem 564 {'problem': 0.2318840579710145}
problem 565 {'problem': 0.2318840579710145}
problem 566 {'problem': 0.2318840579710145}
problem 567 {'problem': 0.2318840579710145}
problem 571 {'problem': 0.2318840579710145}
problem 572 {'problem': 0.2318840579710145}
problem 573 {'problem': 0.2318840579710145}
problem 575 {'problem': 0.2318840579710145}
problem 576 {'problem': 0.2318840579710145}
problem 578 {'problem': 0.2318840579710145}
problem 587 {'problem': 0.2318840579710145}
problem 589 {'problem': 0.2318840579710145}
problem 593 {'problem': 0.2318840579710145}
problem 611 {'problem': 0.2318840579710145}
problem 613 {'problem': 0.2318840579710145}
problem 626 {'problem': 0.2585089141004862}
problem 627 {'problem': 0.2318840579710145}
problem 630 {'problem': 0.2318840579710145}
problem 634 {'problem': 0.2318840579710145}
problem 635 {'problem': 0.2318840579710145}
problem 636 {'problem': 0.2318840579710145}
problem 642 {'problem': 0.2318840579710145}
problem 644 {'problem': 0.2585089141004862}
problem 648 {'problem': 0.2318840579710145}
problem 651 {'problem': 0.2318840579710145}
problem 653 {'problem': 0.2318840579710145}
problem 658 {'problem': 0.2318840579710145}
problem 663 {'problem': 0.2318840579710145}
problem 670 {'problem': 0.2318840579710145}
problem 680 {'problem': 0.2318840579710145}
problem 685 {'problem': 0.2318840579710145}
problem 691 {'problem': 0.2318840579710145}
problem 692 {'problem': 0.2318840579710145}
problem 700 {'problem': 0.2318840579710145}
problem 709 {'problem': 0.2318840579710145}
problem 711 {'problem': 0.2585089141004862}
problem 715 {'problem': 0.2585089141004862}
problem 716 {'problem': 0.2318840579710145}
problem 717 {'problem': 0.2585089141004862}
problem 718 {'problem': 0.2585089141004862}
problem 719 {'problem': 0.2585089141004862}
problem 721 {'problem': 0.2585089141004862}
problem 723 {'problem': 0.2318840579710145}
problem 725 {'problem': 0.2585089141004862}
problem 730 {'problem': 0.2318840579710145}
problem 731 {'problem': 0.2318840579710145}
problem 741 {'problem': 0.2318840579710145}
problem 753 {'problem': 0.2585089141004862}
problem 761 {'problem': 0.2318840579710145}
problem 762 {'problem': 0.2318840579710145}
problem 766 {'problem': 0.2318840579710145}
problem 769 {'problem': 0.2318840579710145}
problem 770 {'problem': 0.2318840579710145}
problem 771 {'problem': 0.2318840579710145}
problem 776 {'problem': 0.2318840579710145}
problem 782 {'problem': 0.2318840579710145}
problem 794 {'problem': 0.2318840579710145}
problem 802 {'problem': 0.2585089141004862}
problem 810 {'problem': 0.2585089141004862}
problem 811 {'problem': 0.2318840579710145}
problem 812 {'problem': 0.2585089141004862}
problem 815 {'problem': 0.2318840579710145}
problem 817 {'problem': 0.2585089141004862}
problem 819 {'problem': 0.2318840579710145}
problem 821 {'problem': 0.2585089141004862}
problem 824 {'problem': 0.2585089141004862}
problem 827 {'problem': 0.2585089141004862}
problem 837 {'problem': 0.2585089141004862}
problem 838 {'problem': 0.2318840579710145}
problem 846 {'problem': 0.2318840579710145}
problem 852 {'problem': 0.2585089141004862}
problem 862 {'problem': 0.2318840579710145}
problem 868 {'problem': 0.2318840579710145}
problem 869 {'problem': 0.2585089141004862}
problem 871 {'problem': 0.2585089141004862}
problem 874 {'problem': 0.2318840579710145}
problem 878 {'problem': 0.2318840579710145}
problem 881 {'problem': 0.2318840579710145}
problem 883 {'problem': 0.2318840579710145}
problem 890 {'problem': 0.2318840579710145}
problem 891 {'problem': 0.2585089141004862}
problem 894 {'problem': 0.2318840579710145}
problem 903 {'problem': 0.2318840579710145}
problem 909 {'problem': 0.2318840579710145}
problem 910 {'problem': 0.2585089141004862}
problem 911 {'problem': 0.2318840579710145}
problem 912 {'problem': 0.2585089141004862}
problem 915 {'problem': 0.2318840579710145}
problem 916 {'problem': 0.2318840579710145}
problem 918 {'problem': 0.2318840579710145}
problem 919 {'problem': 0.2318840579710145}
problem 920 {'problem': 0.2585089141004862}
problem 922 {'problem': 0.2318840579710145}
problem 939 {'problem': 0.2318840579710145}
problem 945 {'problem': 0.2318840579710145}
problem 962 {'problem': 0.2318840579710145}
problem 963 {'problem': 0.2318840579710145}
problem 964 {'problem': 0.2318840579710145}
problem 965 {'problem': 0.2318840579710145}
problem 969 {'problem': 0.2318840579710145}
problem 978 {'problem': 0.2318840579710145}
problem 983 {'problem': 0.2318840579710145}
problem 989 {'problem': 0.2318840579710145}
problem 994 {'problem': 0.2318840579710145}
problem 995 {'problem': 0.2318840579710145}
problem 1010 {'problem': 0.2318840579710145}
problem 1011 {'problem': 0.2318840579710145}
problem 1012 {'problem': 0.2585089141004862}
problem 1013 {'problem': 0.2318840579710145}
problem 1016 {'problem': 0.2318840579710145}
problem 1017 {'problem': 0.2585089141004862}
problem 1023 {'problem': 0.2585089141004862}
problem 1024 {'problem': 0.2585089141004862}
problem 1028 {'problem': 0.2318840579710145}
problem 1032 {'problem': 0.2318840579710145}
problem 1033 {'problem': 0.2318840579710145}
problem 1034 {'problem': 0.2585089141004862}
problem 1036 {'problem': 0.2585089141004862}
problem 1037 {'problem': 0.2318840579710145}
problem 1042 {'problem': 0.2318840579710145}
problem 1049 {'problem': 0.2585089141004862}
problem 1053 {'problem': 0.2318840579710145}
problem 1061 {'problem': 0.2318840579710145}
problem 1064 {'problem': 0.2318840579710145}
problem 1068 {'problem': 0.2318840579710145}
problem 1069 {'problem': 0.2318840579710145}
problem 1070 {'problem': 0.2318840579710145}
problem 1089 {'problem': 0.2318840579710145}
problem 1100 {'problem': 0.2318840579710145}
problem 1103 {'problem': 0.2318840579710145}
problem 1110 {'problem': 0.2318840579710145}
problem 1118 {'problem': 0.2318840579710145}
problem 1119 {'problem': 0.2318840579710145}
problem 1128 {'problem': 0.2318840579710145}
problem 1129 {'problem': 0.2318840579710145}
problem 1131 {'problem': 0.2318840579710145}
problem 1149 {'problem': 0.2318840579710145}
problem 1153 {'problem': 0.2585089141004862}
problem 1159 {'problem': 0.2318840579710145}
problem 1161 {'problem': 0.2318840579710145}
problem 1165 {'problem': 0.2318840579710145}
problem 1170 {'problem': 0.2318840579710145}
problem 1177 {'problem': 0.2318840579710145}
problem 1178 {'problem': 0.2318840579710145}
problem 1181 {'problem': 0.2318840579710145}
problem 1182 {'problem': 0.2318840579710145}
problem 1186 {'problem': 0.2318840579710145}
problem 1189 {'problem': 0.2318840579710145}
problem 1190 {'problem': 0.2318840579710145}
problem 1196 {'problem': 0.2318840579710145}
problem 1198 {'problem': 0.2318840579710145}
problem 1203 {'problem': 0.2318840579710145}
problem 1212 {'problem': 0.2318840579710145}
problem 1214 {'problem': 0.2318840579710145}
problem 1218 {'problem': 0.2318840579710145}
problem 1219 {'problem': 0.2318840579710145}
problem 1225 {'problem': 0.2318840579710145}
problem 1227 {'problem': 0.2318840579710145}
problem 1232 {'problem': 0.2318840579710145}
problem 1234 {'problem': 0.2318840579710145}
problem 1242 {'problem': 0.2318840579710145}
problem 1244 {'problem': 0.2318840579710145}
problem 1252 {'problem': 0.2318840579710145}
problem 1258 {'problem': 0.2318840579710145}
problem 1259 {'problem': 0.2318840579710145}
problem 1260 {'problem': 0.2585089141004862}
problem 1262 {'problem': 0.2318840579710145}
problem 1272 {'problem': 0.2318840579710145}
problem 1273 {'problem': 0.2318840579710145}
problem 1274 {'problem': 0.2318840579710145}
problem 1280 {'problem': 0.2318840579710145}
problem 1288 {'problem': 0.2318840579710145}
problem 1290 {'problem': 0.2318840579710145}
problem 1299 {'problem': 0.2318840579710145}
problem 1309 {'problem': 0.2318840579710145}
problem 1312 {'problem': 0.2318840579710145}
problem 1324 {'problem': 0.2318840579710145}
problem 1340 {'problem': 0.2318840579710145}
problem 1341 {'problem': 0.2585089141004862}
problem 1349 {'problem': 0.2318840579710145}
problem 1354 {'problem': 0.2318840579710145}
problem 1355 {'problem': 0.2318840579710145}
problem 1356 {'problem': 0.2318840579710145}
problem 1358 {'problem': 0.2318840579710145}
problem 1359 {'problem': 0.2585089141004862}
problem 1368 {'problem': 0.2318840579710145}
problem 1369 {'problem': 0.2318840579710145}
problem 1371 {'problem': 0.2318840579710145}
problem 1377 {'problem': 0.2585089141004862}
problem 28 {'problem': 0.2593192868719611}
problem 29 {'problem': 0.2593192868719611}
problem 30 {'problem': 0.2593192868719611}
problem 65 {'problem': 0.2593192868719611}
problem 94 {'problem': 0.2593192868719611}
problem 99 {'problem': 0.2593192868719611}
problem 129 {'problem': 0.2593192868719611}
problem 131 {'problem': 0.2593192868719611}
problem 133 {'problem': 0.2593192868719611}
problem 161 {'problem': 0.2593192868719611}
problem 162 {'problem': 0.2593192868719611}
problem 182 {'problem': 0.2593192868719611}
problem 187 {'problem': 0.2593192868719611}
problem 190 {'problem': 0.2593192868719611}
problem 248 {'problem': 0.2593192868719611}
problem 250 {'problem': 0.2593192868719611}
problem 341 {'problem': 0.2593192868719611}
problem 390 {'problem': 0.2593192868719611}
problem 393 {'problem': 0.2593192868719611}
problem 405 {'problem': 0.2593192868719611}
problem 408 {'problem': 0.2593192868719611}
problem 411 {'problem': 0.2593192868719611}
problem 487 {'problem': 0.2593192868719611}
problem 551 {'problem': 0.2593192868719611}
problem 568 {'problem': 0.2593192868719611}
problem 580 {'problem': 0.2593192868719611}
problem 584 {'problem': 0.2593192868719611}
problem 597 {'problem': 0.2593192868719611}
problem 705 {'problem': 0.2593192868719611}
problem 707 {'problem': 0.2593192868719611}
problem 710 {'problem': 0.2593192868719611}
problem 712 {'problem': 0.2593192868719611}
problem 714 {'problem': 0.2593192868719611}
problem 726 {'problem': 0.2593192868719611}
problem 727 {'problem': 0.2593192868719611}
problem 745 {'problem': 0.2593192868719611}
problem 747 {'problem': 0.2593192868719611}
problem 749 {'problem': 0.2593192868719611}
problem 750 {'problem': 0.2593192868719611}
problem 751 {'problem': 0.2593192868719611}
problem 801 {'problem': 0.2593192868719611}
problem 803 {'problem': 0.2593192868719611}
problem 804 {'problem': 0.2593192868719611}
problem 806 {'problem': 0.2593192868719611}
problem 809 {'problem': 0.2593192868719611}
problem 814 {'problem': 0.2593192868719611}
problem 820 {'problem': 0.2593192868719611}
problem 823 {'problem': 0.2593192868719611}
problem 825 {'problem': 0.2593192868719611}
problem 834 {'problem': 0.2593192868719611}
problem 835 {'problem': 0.2593192868719611}
problem 841 {'problem': 0.2593192868719611}
problem 842 {'problem': 0.2593192868719611}
problem 849 {'problem': 0.2593192868719611}
problem 851 {'problem': 0.2593192868719611}
problem 853 {'problem': 0.2593192868719611}
problem 856 {'problem': 0.2593192868719611}
problem 859 {'problem': 0.2593192868719611}
problem 863 {'problem': 0.2593192868719611}
problem 865 {'problem': 0.2593192868719611}
problem 867 {'problem': 0.2593192868719611}
problem 870 {'problem': 0.2593192868719611}
problem 872 {'problem': 0.2593192868719611}
problem 879 {'problem': 0.2593192868719611}
problem 917 {'problem': 0.2593192868719611}
problem 935 {'problem': 0.2593192868719611}
problem 936 {'problem': 0.2593192868719611}
problem 993 {'problem': 0.2593192868719611}
problem 996 {'problem': 0.2593192868719611}
problem 999 {'problem': 0.2593192868719611}
problem 1000 {'problem': 0.2593192868719611}
problem 1006 {'problem': 0.2593192868719611}
problem 1008 {'problem': 0.2593192868719611}
problem 1015 {'problem': 0.2593192868719611}
problem 1018 {'problem': 0.2593192868719611}
problem 1019 {'problem': 0.2593192868719611}
problem 1020 {'problem': 0.2593192868719611}
problem 1022 {'problem': 0.2593192868719611}
problem 1025 {'problem': 0.2593192868719611}
problem 1027 {'problem': 0.2593192868719611}
problem 1039 {'problem': 0.2593192868719611}
problem 1040 {'problem': 0.2593192868719611}
problem 1052 {'problem': 0.2593192868719611}
problem 1097 {'problem': 0.2593192868719611}
problem 1104 {'problem': 0.2593192868719611}
problem 1108 {'problem': 0.2593192868719611}
problem 1109 {'problem': 0.2593192868719611}
problem 1115 {'problem': 0.2593192868719611}
problem 1117 {'problem': 0.2593192868719611}
problem 1127 {'problem': 0.2593192868719611}
problem 1152 {'problem': 0.2593192868719611}
problem 1155 {'problem': 0.2593192868719611}
problem 1157 {'problem': 0.2593192868719611}
problem 1158 {'problem': 0.2593192868719611}
problem 1206 {'problem': 0.2593192868719611}
problem 1223 {'problem': 0.2593192868719611}
problem 1254 {'problem': 0.2593192868719611}
problem 1301 {'problem': 0.2593192868719611}
problem 1366 {'problem': 0.2593192868719611}
problem 1376 {'problem': 0.2593192868719611}
problem 1378 {'problem': 0.2593192868719611}
problem 1379 {'problem': 0.2593192868719611}
work 18 {'work': 0.08497246262785209}
work 27 {'work': 0.08497246262785209}
work 28 {'work': 0.08497246262785209}
work 33 {'work': 0.08497246262785209}
work 48 {'work': 0.08497246262785209}
work 94 {'work': 0.08497246262785209}
work 98 {'work': 0.08497246262785209}
work 107 {'work': 0.08497246262785209}
work 120 {'work': 0.08497246262785209}
work 121 {'work': 0.08497246262785209}
work 136 {'work': 0.08497246262785209}
work 137 {'work': 0.08497246262785209}
work 143 {'work': 0.08497246262785209}
work 145 {'work': 0.08497246262785209}
work 152 {'work': 0.08497246262785209}
work 180 {'work': 0.08497246262785209}
work 181 {'work': 0.08497246262785209}
work 191 {'work': 0.08497246262785209}
work 197 {'work': 0.08497246262785209}
work 202 {'work': 0.08497246262785209}
work 205 {'work': 0.08497246262785209}
work 206 {'work': 0.08497246262785209}
work 207 {'work': 0.08497246262785209}
work 235 {'work': 0.08497246262785209}
work 237 {'work': 0.08497246262785209}
work 238 {'work': 0.08497246262785209}
work 239 {'work': 0.08497246262785209}
work 247 {'work': 0.08497246262785209}
work 255 {'work': 0.08497246262785209}
work 287 {'work': 0.08497246262785209}
work 309 {'work': 0.08497246262785209}
work 321 {'work': 0.08497246262785209}
work 332 {'work': 0.08497246262785209}
work 337 {'work': 0.08497246262785209}
work 338 {'work': 0.08497246262785209}
work 354 {'work': 0.08497246262785209}
work 369 {'work': 0.08497246262785209}
work 393 {'work': 0.08497246262785209}
work 405 {'work': 0.08497246262785209}
work 406 {'work': 0.08497246262785209}
work 407 {'work': 0.08497246262785209}
work 409 {'work': 0.08497246262785209}
work 420 {'work': 0.08497246262785209}
work 422 {'work': 0.08497246262785209}
work 443 {'work': 0.08497246262785209}
work 449 {'work': 0.08497246262785209}
work 505 {'work': 0.08497246262785209}
work 510 {'work': 0.08497246262785209}
work 539 {'work': 0.08497246262785209}
work 563 {'work': 0.08497246262785209}
work 567 {'work': 0.08497246262785209}
work 591 {'work': 0.08497246262785209}
work 593 {'work': 0.08497246262785209}
work 595 {'work': 0.08497246262785209}
work 604 {'work': 0.08497246262785209}
work 626 {'work': 0.08497246262785209}
work 635 {'work': 0.08497246262785209}
work 642 {'work': 0.08497246262785209}
work 646 {'work': 0.08497246262785209}
work 658 {'work': 0.08497246262785209}
work 663 {'work': 0.08497246262785209}
work 705 {'work': 0.08497246262785209}
work 718 {'work': 0.08497246262785209}
work 725 {'work': 0.08497246262785209}
work 727 {'work': 0.08497246262785209}
work 733 {'work': 0.08497246262785209}
work 740 {'work': 0.08497246262785209}
work 745 {'work': 0.08497246262785209}
work 776 {'work': 0.08497246262785209}
work 782 {'work': 0.08497246262785209}
work 783 {'work': 0.08497246262785209}
work 784 {'work': 0.08497246262785209}
work 801 {'work': 0.08497246262785209}
work 810 {'work': 0.08497246262785209}
work 817 {'work': 0.08497246262785209}
work 852 {'work': 0.08497246262785209}
work 863 {'work': 0.08497246262785209}
work 880 {'work': 0.08497246262785209}
work 896 {'work': 0.08497246262785209}
work 899 {'work': 0.08497246262785209}
work 931 {'work': 0.08497246262785209}
work 950 {'work': 0.08497246262785209}
work 988 {'work': 0.08497246262785209}
work 994 {'work': 0.08497246262785209}
work 1016 {'work': 0.08497246262785209}
work 1027 {'work': 0.08497246262785209}
work 1028 {'work': 0.08497246262785209}
work 1035 {'work': 0.08497246262785209}
work 1039 {'work': 0.08497246262785209}
work 1049 {'work': 0.08497246262785209}
work 1061 {'work': 0.08497246262785209}
work 1063 {'work': 0.08497246262785209}
work 1064 {'work': 0.08497246262785209}
work 1106 {'work': 0.08497246262785209}
work 1127 {'work': 0.08497246262785209}
work 1140 {'work': 0.08497246262785209}
work 1168 {'work': 0.08497246262785209}
work 1170 {'work': 0.08497246262785209}
work 1247 {'work': 0.08497246262785209}
work 1265 {'work': 0.08497246262785209}
work 1288 {'work': 0.08497246262785209}
work 1289 {'work': 0.08497246262785209}
work 1294 {'work': 0.08497246262785209}
work 1295 {'work': 0.08497246262785209}
work 1301 {'work': 0.08497246262785209}
work 1322 {'work': 0.08497246262785209}
work 1339 {'work': 0.08497246262785209}
work 1362 {'work': 0.08497246262785209}
work 1364 {'work': 0.08497246262785209}
