query document relevance
stress 12 {'stress': 0.6584932723174647}
stress 28 {'stress': 0.6584932723174647}
stress 29 {'stress': 0.6584932723174647}
stress 30 {'stress': 0.6584932723174647}
stress 50 {'stress': 0.6584932723174647}
stress 65 {'stress': 0.6584932723174647}
stress 74 {'stress': 0.7434209408846466}
life 74 {'life': 0.7177630349731112}
stress 94 {'stress': 0.6584932723174647}
stress 98 {'stress': 0.6584932723174647}
stress 99 {'stress': 0.7434209408846466}
life 99 {'life': 0.7177630349731112}
stress 129 {'stress': 0.6584932723174647}
stress 131 {'stress': 0.6584932723174647}
stress 133 {'stress': 0.6584932723174647}
stress 161 {'stress': 0.6584932723174647}
stress 162 {'stress': 0.6584932723174647}
stress 182 {'stress': 0.6584932723174647}
stress 187 {'stress': 0.6584932723174647}
stress 190 {'stress': 0.6584932723174647}
stress 248 {'stress': 0.6584932723174647}
stress 250 {'stress': 0.6584932723174647}
stress 322 {'stress': 0.6584932723174647}
stress 341 {'stress': 0.6584932723174647}
stress 384 {'stress': 0.6584932723174647}
stress 390 {'stress': 0.6584932723174647}
stress 393 {'stress': 0.6584932723174647}
stress 405 {'stress': 0.6584932723174647}
stress 408 {'stress': 0.6584932723174647}
stress 411 {'stress': 0.6584932723174647}
stress 416 {'stress': 0.6584932723174647}
stress 487 {'stress': 0.6584932723174647}
stress 551 {'stress': 0.6584932723174647}
stress 568 {'stress': 0.6584932723174647}
stress 580 {'stress': 0.6584932723174647}
stress 584 {'stress': 0.6584932723174647}
stress 597 {'stress': 0.6584932723174647}
life 601 {'life': 0.6895393384704224}
stress 626 {'stress': 0.7434209408846466}
life 626 {'life': 0.7177630349731112}
stress 644 {'stress': 0.7434209408846466}
life 644 {'life': 0.7177630349731112}
stress 705 {'stress': 0.6584932723174647}
stress 707 {'stress': 0.6584932723174647}
life 708 {'life': 0.6895393384704224}
life 709 {'life': 0.6895393384704224}
stress 710 {'stress': 0.6584932723174647}
stress 711 {'stress': 0.6584932723174647}
stress 712 {'stress': 0.7434209408846466}
life 712 {'life': 0.7177630349731112}
stress 714 {'stress': 0.6584932723174647}
stress 715 {'stress': 0.6584932723174647}
stress 717 {'stress': 0.6584932723174647}
stress 718 {'stress': 0.6584932723174647}
stress 719 {'stress': 0.6584932723174647}
stress 721 {'stress': 0.6584932723174647}
stress 725 {'stress': 0.6584932723174647}
stress 726 {'stress': 0.6584932723174647}
stress 727 {'stress': 0.6584932723174647}
stress 745 {'stress': 0.6584932723174647}
stress 747 {'stress': 0.6584932723174647}
stress 749 {'stress': 0.6584932723174647}
stress 750 {'stress': 0.6584932723174647}
stress 751 {'stress': 0.6584932723174647}
life 752 {'life': 0.6895393384704224}
stress 753 {'stress': 0.6584932723174647}
stress 801 {'stress': 0.6584932723174647}
stress 802 {'stress': 0.6584932723174647}
stress 803 {'stress': 0.6584932723174647}
stress 804 {'stress': 0.6584932723174647}
stress 806 {'stress': 0.6584932723174647}
stress 809 {'stress': 0.6584932723174647}
stress 810 {'stress': 0.6584932723174647}
stress 812 {'stress': 0.6584932723174647}
stress 814 {'stress': 0.6584932723174647}
stress 817 {'stress': 0.6584932723174647}
stress 820 {'stress': 0.6584932723174647}
stress 821 {'stress': 0.6584932723174647}
stress 823 {'stress': 0.6584932723174647}
stress 824 {'stress': 0.6584932723174647}
stress 825 {'stress': 0.6584932723174647}
stress 827 {'stress': 0.6584932723174647}
stress 834 {'stress': 0.6584932723174647}
stress 835 {'stress': 0.6584932723174647}
stress 837 {'stress': 0.6584932723174647}
stress 841 {'stress': 0.6584932723174647}
stress 842 {'stress': 0.6584932723174647}
life 847 {'life': 0.6895393384704224}
stress 849 {'stress': 0.6584932723174647}
stress 851 {'stress': 0.6584932723174647}
stress 852 {'stress': 0.6584932723174647}
stress 853 {'stress': 0.6584932723174647}
stress 856 {'stress': 0.6584932723174647}
stress 859 {'stress': 0.6584932723174647}
stress 863 {'stress': 0.7434209408846466}
life 863 {'life': 0.7177630349731112}
life 864 {'life': 0.6895393384704224}
stress 865 {'stress': 0.6584932723174647}
stress 867 {'stress': 0.6584932723174647}
stress 869 {'stress': 0.6584932723174647}
stress 870 {'stress': 0.6584932723174647}
stress 871 {'stress': 0.6584932723174647}
stress 872 {'stress': 0.6584932723174647}
stress 879 {'stress': 0.6584932723174647}
stress 891 {'stress': 0.7434209408846466}
life 891 {'life': 0.7177630349731112}
stress 910 {'stress': 0.6584932723174647}
stress 912 {'stress': 0.6584932723174647}
stress 917 {'stress': 0.6584932723174647}
stress 920 {'stress': 0.6584932723174647}
stress 935 {'stress': 0.6584932723174647}
stress 936 {'stress': 0.6584932723174647}
stress 993 {'stress': 0.6584932723174647}
stress 996 {'stress': 0.6584932723174647}
stress 999 {'stress': 0.6584932723174647}
stress 1000 {'stress': 0.6584932723174647}
stress 1006 {'stress': 0.6584932723174647}
stress 1008 {'stress': 0.6584932723174647}
stress 1012 {'stress': 0.6584932723174647}
stress 1015 {'stress': 0.6584932723174647}
stress 1017 {'stress': 0.6584932723174647}
stress 1018 {'stress': 0.6584932723174647}
stress 1019 {'stress': 0.6584932723174647}
stress 1020 {'stress': 0.6584932723174647}
stress 1022 {'stress': 0.6584932723174647}
stress 1023 {'stress': 0.6584932723174647}
stress 1024 {'stress': 0.6584932723174647}
stress 1025 {'stress': 0.6584932723174647}
stress 1027 {'stress': 0.6584932723174647}
stress 1034 {'stress': 0.6584932723174647}
stress 1036 {'stress': 0.6584932723174647}
stress 1039 {'stress': 0.6584932723174647}
stress 1040 {'stress': 0.6584932723174647}
stress 1049 {'stress': 0.6584932723174647}
stress 1052 {'stress': 0.6584932723174647}
stress 1097 {'stress': 0.6584932723174647}
stress 1104 {'stress': 0.6584932723174647}
stress 1108 {'stress': 0.6584932723174647}
stress 1109 {'stress': 0.6584932723174647}
stress 1115 {'stress': 0.6584932723174647}
stress 1117 {'stress': 0.6584932723174647}
stress 1127 {'stress': 0.6584932723174647}
stress 1152 {'stress': 0.6584932723174647}
stress 1153 {'stress': 0.6584932723174647}
stress 1155 {'stress': 0.6584932723174647}
stress 1157 {'stress': 0.6584932723174647}
stress 1158 {'stress': 0.6584932723174647}
stress 1206 {'stress': 0.6584932723174647}
stress 1223 {'stress': 0.6584932723174647}
stress 1254 {'stress': 0.6584932723174647}
stress 1260 {'stress': 0.6584932723174647}
stress 1301 {'stress': 0.6584932723174647}
stress 1341 {'stress': 0.6584932723174647}
stress 1359 {'stress': 0.6584932723174647}
stress 1366 {'stress': 0.6584932723174647}
stress 1376 {'stress': 0.6584932723174647}
stress 1377 {'stress': 0.6584932723174647}
stress 1378 {'stress': 0.6584932723174647}
stress 1379 {'stress': 0.6584932723174647}
stress 601 {'stress': 0.5}
stress 708 {'stress': 0.5}
stress 709 {'stress': 0.5}
stress 752 {'stress': 0.5}
stress 847 {'stress': 0.5}
stress 864 {'stress': 0.5}
life 12 {'life': 0.5}
life 28 {'life': 0.5}
life 29 {'life': 0.5}
life 30 {'life': 0.5}
life 50 {'life': 0.5}
life 65 {'life': 0.5}
life 94 {'life': 0.5}
life 98 {'life': 0.5}
life 129 {'life': 0.5}
life 131 {'life': 0.5}
life 133 {'life': 0.5}
life 161 {'life': 0.5}
life 162 {'life': 0.5}
life 182 {'life': 0.5}
life 187 {'life': 0.5}
life 190 {'life': 0.5}
life 248 {'life': 0.5}
life 250 {'life': 0.5}
life 322 {'life': 0.5}
life 341 {'life': 0.5}
life 384 {'life': 0.5}
life 390 {'life': 0.5}
life 393 {'life': 0.5}
life 405 {'life': 0.5}
life 408 {'life': 0.5}
life 411 {'life': 0.5}
life 416 {'life': 0.5}
life 487 {'life': 0.5}
life 551 {'life': 0.5}
life 568 {'life': 0.5}
life 580 {'life': 0.5}
life 584 {'life': 0.5}
life 597 {'life': 0.5}
life 705 {'life': 0.5}
life 707 {'life': 0.5}
life 710 {'life': 0.5}
life 711 {'life': 0.5}
life 714 {'life': 0.5}
life 715 {'life': 0.5}
life 717 {'life': 0.5}
life 718 {'life': 0.5}
life 719 {'life': 0.5}
life 721 {'life': 0.5}
life 725 {'life': 0.5}
life 726 {'life': 0.5}
life 727 {'life': 0.5}
life 745 {'life': 0.5}
life 747 {'life': 0.5}
life 749 {'life': 0.5}
life 750 {'life': 0.5}
life 751 {'life': 0.5}
life 753 {'life': 0.5}
life 801 {'life': 0.5}
life 802 {'life': 0.5}
life 803 {'life': 0.5}
life 804 {'life': 0.5}
life 806 {'life': 0.5}
life 809 {'life': 0.5}
life 810 {'life': 0.5}
life 812 {'life': 0.5}
life 814 {'life': 0.5}
life 817 {'life': 0.5}
life 820 {'life': 0.5}
life 821 {'life': 0.5}
life 823 {'life': 0.5}
life 824 {'life': 0.5}
life 825 {'life': 0.5}
life 827 {'life': 0.5}
life 834 {'life': 0.5}
life 835 {'life': 0.5}
life 837 {'life': 0.5}
life 841 {'life': 0.5}
life 842 {'life': 0.5}
life 849 {'life': 0.5}
life 851 {'life': 0.5}
life 852 {'life': 0.5}
life 853 {'life': 0.5}
life 856 {'life': 0.5}
life 859 {'life': 0.5}
life 865 {'life': 0.5}
life 867 {'life': 0.5}
life 869 {'life': 0.5}
life 870 {'life': 0.5}
life 871 {'life': 0.5}
life 872 {'life': 0.5}
life 879 {'life': 0.5}
life 910 {'life': 0.5}
life 912 {'life': 0.5}
life 917 {'life': 0.5}
life 920 {'life': 0.5}
life 935 {'life': 0.5}
life 936 {'life': 0.5}
life 993 {'life': 0.5}
life 996 {'life': 0.5}
life 999 {'life': 0.5}
life 1000 {'life': 0.5}
life 1006 {'life': 0.5}
life 1008 {'life': 0.5}
life 1012 {'life': 0.5}
life 1015 {'life': 0.5}
life 1017 {'life': 0.5}
life 1018 {'life': 0.5}
life 1019 {'life': 0.5}
life 1020 {'life': 0.5}
life 1022 {'life': 0.5}
life 1023 {'life': 0.5}
life 1024 {'life': 0.5}
life 1025 {'life': 0.5}
life 1027 {'life': 0.5}
life 1034 {'life': 0.5}
life 1036 {'life': 0.5}
life 1039 {'life': 0.5}
life 1040 {'life': 0.5}
life 1049 {'life': 0.5}
life 1052 {'life': 0.5}
life 1097 {'life': 0.5}
life 1104 {'life': 0.5}
life 1108 {'life': 0.5}
life 1109 {'life': 0.5}
life 1115 {'life': 0.5}
life 1117 {'life': 0.5}
life 1127 {'life': 0.5}
life 1152 {'life': 0.5}
life 1153 {'life': 0.5}
life 1155 {'life': 0.5}
life 1157 {'life': 0.5}
life 1158 {'life': 0.5}
life 1206 {'life': 0.5}
life 1223 {'life': 0.5}
life 1254 {'life': 0.5}
life 1260 {'life': 0.5}
life 1301 {'life': 0.5}
life 1341 {'life': 0.5}
life 1359 {'life': 0.5}
life 1366 {'life': 0.5}
life 1376 {'life': 0.5}
life 1377 {'life': 0.5}
life 1378 {'life': 0.5}
life 1379 {'life': 0.5}
problem 0 {'problem': 0.5}
problem 1 {'problem': 0.5}
problem 3 {'problem': 0.5}
problem 5 {'problem': 0.5}
problem 10 {'problem': 0.5}
problem 11 {'problem': 0.5}
problem 12 {'problem': 0.5454545454545454}
problem 13 {'problem': 0.5}
problem 14 {'problem': 0.5}
problem 25 {'problem': 0.5}
problem 27 {'problem': 0.5}
problem 32 {'problem': 0.5}
problem 33 {'problem': 0.5}
problem 34 {'problem': 0.5}
problem 43 {'problem': 0.5}
problem 45 {'problem': 0.5}
problem 50 {'problem': 0.5454545454545454}
problem 59 {'problem': 0.5}
problem 71 {'problem': 0.5}
problem 72 {'problem': 0.5}
problem 74 {'problem': 0.5454545454545454}
problem 80 {'problem': 0.5}
problem 81 {'problem': 0.5}
problem 86 {'problem': 0.5}
problem 91 {'problem': 0.5}
problem 92 {'problem': 0.5}
problem 96 {'problem': 0.5}
problem 97 {'problem': 0.5}
problem 98 {'problem': 0.5454545454545454}
problem 106 {'problem': 0.5}
problem 108 {'problem': 0.5}
problem 113 {'problem': 0.5}
problem 128 {'problem': 0.5}
problem 140 {'problem': 0.5}
problem 142 {'problem': 0.5}
problem 143 {'problem': 0.5}
problem 147 {'problem': 0.5}
problem 152 {'problem': 0.5}
problem 154 {'problem': 0.5}
problem 156 {'problem': 0.5}
problem 157 {'problem': 0.5}
problem 160 {'problem': 0.5}
problem 168 {'problem': 0.5}
problem 177 {'problem': 0.5}
problem 181 {'problem': 0.5}
problem 196 {'problem': 0.5}
problem 201 {'problem': 0.5}
problem 239 {'problem': 0.5}
problem 255 {'problem': 0.5}
problem 257 {'problem': 0.5}
problem 259 {'problem': 0.5}
problem 267 {'problem': 0.5}
problem 274 {'problem': 0.5}
problem 277 {'problem': 0.5}
problem 278 {'problem': 0.5}
problem 286 {'problem': 0.5}
problem 290 {'problem': 0.5}
problem 293 {'problem': 0.5}
problem 297 {'problem': 0.5}
problem 298 {'problem': 0.5}
problem 313 {'problem': 0.5}
problem 314 {'problem': 0.5}
problem 315 {'problem': 0.5}
problem 316 {'problem': 0.5}
problem 322 {'problem': 0.5454545454545454}
problem 329 {'problem': 0.5}
problem 335 {'problem': 0.5}
problem 337 {'problem': 0.5}
problem 340 {'problem': 0.5}
problem 342 {'problem': 0.5}
problem 343 {'problem': 0.5}
problem 344 {'problem': 0.5}
problem 355 {'problem': 0.5}
problem 356 {'problem': 0.5}
problem 357 {'problem': 0.5}
problem 358 {'problem': 0.5}
problem 359 {'problem': 0.5}
problem 361 {'problem': 0.5}
problem 362 {'problem': 0.5}
problem 367 {'problem': 0.5}
problem 368 {'problem': 0.5}
problem 372 {'problem': 0.5}
problem 378 {'problem': 0.5}
problem 381 {'problem': 0.5}
problem 382 {'problem': 0.5}
problem 383 {'problem': 0.5}
problem 384 {'problem': 0.5454545454545454}
problem 388 {'problem': 0.5}
problem 391 {'problem': 0.5}
problem 394 {'problem': 0.5}
problem 397 {'problem': 0.5}
problem 399 {'problem': 0.5}
problem 402 {'problem': 0.5}
problem 403 {'problem': 0.5}
problem 406 {'problem': 0.5}
problem 409 {'problem': 0.5}
problem 414 {'problem': 0.5}
problem 416 {'problem': 0.5454545454545454}
problem 417 {'problem': 0.5}
problem 421 {'problem': 0.5}
problem 424 {'problem': 0.5}
problem 433 {'problem': 0.5}
problem 436 {'problem': 0.5}
problem 437 {'problem': 0.5}
problem 440 {'problem': 0.5}
problem 441 {'problem': 0.5}
problem 443 {'problem': 0.5}
problem 447 {'problem': 0.5}
problem 450 {'problem': 0.5}
problem 454 {'problem': 0.5}
problem 463 {'problem': 0.5}
problem 466 {'problem': 0.5}
problem 470 {'problem': 0.5}
problem 476 {'problem': 0.5}
problem 489 {'problem': 0.5}
problem 494 {'problem': 0.5}
problem 508 {'problem': 0.5}
problem 517 {'problem': 0.5}
problem 522 {'problem': 0.5}
problem 523 {'problem': 0.5}
problem 527 {'problem': 0.5}
problem 530 {'problem': 0.5}
problem 532 {'problem': 0.5}
problem 540 {'problem': 0.5}
problem 541 {'problem': 0.5}
problem 543 {'problem': 0.5}
problem 549 {'problem': 0.5}
problem 558 {'problem': 0.5}
problem 560 {'problem': 0.5}
problem 562 {'problem': 0.5}
problem 563 {'problem': 0.5}
problem 564 {'problem': 0.5}
problem 565 {'problem': 0.5}
problem 566 {'problem': 0.5}
problem 567 {'problem': 0.5}
problem 571 {'problem': 0.5}
problem 572 {'problem': 0.5}
problem 573 {'problem': 0.5}
problem 575 {'problem': 0.5}
problem 576 {'problem': 0.5}
problem 578 {'problem': 0.5}
problem 587 {'problem': 0.5}
problem 589 {'problem': 0.5}
problem 593 {'problem': 0.5}
problem 611 {'problem': 0.5}
problem 613 {'problem': 0.5}
problem 626 {'problem': 0.5454545454545454}
problem 627 {'problem': 0.5}
problem 630 {'problem': 0.5}
problem 634 {'problem': 0.5}
problem 635 {'problem': 0.5}
problem 636 {'problem': 0.5}
problem 642 {'problem': 0.5}
problem 644 {'problem': 0.5454545454545454}
problem 648 {'problem': 0.5}
problem 651 {'problem': 0.5}
problem 653 {'problem': 0.5}
problem 658 {'problem': 0.5}
problem 663 {'problem': 0.5}
problem 670 {'problem': 0.5}
problem 680 {'problem': 0.5}
problem 685 {'problem': 0.5}
problem 691 {'problem': 0.5}
problem 692 {'problem': 0.5}
problem 700 {'problem': 0.5}
problem 709 {'problem': 0.5}
problem 711 {'problem': 0.5454545454545454}
problem 715 {'problem': 0.5454545454545454}
problem 716 {'problem': 0.5}
problem 717 {'problem': 0.5454545454545454}
problem 718 {'problem': 0.5454545454545454}
problem 719 {'problem': 0.5454545454545454}
problem 721 {'problem': 0.5454545454545454}
problem 723 {'problem': 0.5}
problem 725 {'problem': 0.5454545454545454}
problem 730 {'problem': 0.5}
problem 731 {'problem': 0.5}
problem 741 {'problem': 0.5}
problem 753 {'problem': 0.5454545454545454}
problem 761 {'problem': 0.5}
problem 762 {'problem': 0.5}
problem 766 {'problem': 0.5}
problem 769 {'problem': 0.5}
problem 770 {'problem': 0.5}
problem 771 {'problem': 0.5}
problem 776 {'problem': 0.5}
problem 782 {'problem': 0.5}
problem 794 {'problem': 0.5}
problem 802 {'problem': 0.5454545454545454}
problem 810 {'problem': 0.5454545454545454}
problem 811 {'problem': 0.5}
problem 812 {'problem': 0.5454545454545454}
problem 815 {'problem': 0.5}
problem 817 {'problem': 0.5454545454545454}
problem 819 {'problem': 0.5}
problem 821 {'problem': 0.5454545454545454}
problem 824 {'problem': 0.5454545454545454}
problem 827 {'problem': 0.5454545454545454}
problem 837 {'problem': 0.5454545454545454}
problem 838 {'problem': 0.5}
problem 846 {'problem': 0.5}
problem 852 {'problem': 0.5454545454545454}
problem 862 {'problem': 0.5}
problem 868 {'problem': 0.5}
problem 869 {'problem': 0.5454545454545454}
problem 871 {'problem': 0.5454545454545454}
problem 874 {'problem': 0.5}
problem 878 {'problem': 0.5}
problem 881 {'problem': 0.5}
problem 883 {'problem': 0.5}
problem 890 {'problem': 0.5}
problem 891 {'problem': 0.5454545454545454}
problem 894 {'problem': 0.5}
problem 903 {'problem': 0.5}
problem 909 {'problem': 0.5}
problem 910 {'problem': 0.5454545454545454}
problem 911 {'problem': 0.5}
problem 912 {'problem': 0.5454545454545454}
problem 915 {'problem': 0.5}
problem 916 {'problem': 0.5}
problem 918 {'problem': 0.5}
problem 919 {'problem': 0.5}
problem 920 {'problem': 0.5454545454545454}
problem 922 {'problem': 0.5}
problem 939 {'problem': 0.5}
problem 945 {'problem': 0.5}
problem 962 {'problem': 0.5}
problem 963 {'problem': 0.5}
problem 964 {'problem': 0.5}
problem 965 {'problem': 0.5}
problem 969 {'problem': 0.5}
problem 978 {'problem': 0.5}
problem 983 {'problem': 0.5}
problem 989 {'problem': 0.5}
problem 994 {'problem': 0.5}
problem 995 {'problem': 0.5}
problem 1010 {'problem': 0.5}
problem 1011 {'problem': 0.5}
problem 1012 {'problem': 0.5454545454545454}
problem 1013 {'problem': 0.5}
problem 1016 {'problem': 0.5}
problem 1017 {'problem': 0.5454545454545454}
problem 1023 {'problem': 0.5454545454545454}
problem 1024 {'problem': 0.5454545454545454}
problem 1028 {'problem': 0.5}
problem 1032 {'problem': 0.5}
problem 1033 {'problem': 0.5}
problem 1034 {'problem': 0.5454545454545454}
problem 1036 {'problem': 0.5454545454545454}
problem 1037 {'problem': 0.5}
problem 1042 {'problem': 0.5}
problem 1049 {'problem': 0.5454545454545454}
problem 1053 {'problem': 0.5}
problem 1061 {'problem': 0.5}
problem 1064 {'problem': 0.5}
problem 1068 {'problem': 0.5}
problem 1069 {'problem': 0.5}
problem 1070 {'problem': 0.5}
problem 1089 {'problem': 0.5}
problem 1100 {'problem': 0.5}
problem 1103 {'problem': 0.5}
problem 1110 {'problem': 0.5}
problem 1118 {'problem': 0.5}
problem 1119 {'problem': 0.5}
problem 1128 {'problem': 0.5}
problem 1129 {'problem': 0.5}
problem 1131 {'problem': 0.5}
problem 1149 {'problem': 0.5}
problem 1153 {'problem': 0.5454545454545454}
problem 1159 {'problem': 0.5}
problem 1161 {'problem': 0.5}
problem 1165 {'problem': 0.5}
problem 1170 {'problem': 0.5}
problem 1177 {'problem': 0.5}
problem 1178 {'problem': 0.5}
problem 1181 {'problem': 0.5}
problem 1182 {'problem': 0.5}
problem 1186 {'problem': 0.5}
problem 1189 {'problem': 0.5}
problem 1190 {'problem': 0.5}
problem 1196 {'problem': 0.5}
problem 1198 {'problem': 0.5}
problem 1203 {'problem': 0.5}
problem 1212 {'problem': 0.5}
problem 1214 {'problem': 0.5}
problem 1218 {'problem': 0.5}
problem 1219 {'problem': 0.5}
problem 1225 {'problem': 0.5}
problem 1227 {'problem': 0.5}
problem 1232 {'problem': 0.5}
problem 1234 {'problem': 0.5}
problem 1242 {'problem': 0.5}
problem 1244 {'problem': 0.5}
problem 1252 {'problem': 0.5}
problem 1258 {'problem': 0.5}
problem 1259 {'problem': 0.5}
problem 1260 {'problem': 0.5454545454545454}
problem 1262 {'problem': 0.5}
problem 1272 {'problem': 0.5}
problem 1273 {'problem': 0.5}
problem 1274 {'problem': 0.5}
problem 1280 {'problem': 0.5}
problem 1288 {'problem': 0.5}
problem 1290 {'problem': 0.5}
problem 1299 {'problem': 0.5}
problem 1309 {'problem': 0.5}
problem 1312 {'problem': 0.5}
problem 1324 {'problem': 0.5}
problem 1340 {'problem': 0.5}
problem 1341 {'problem': 0.5454545454545454}
problem 1349 {'problem': 0.5}
problem 1354 {'problem': 0.5}
problem 1355 {'problem': 0.5}
problem 1356 {'problem': 0.5}
problem 1358 {'problem': 0.5}
problem 1359 {'problem': 0.5454545454545454}
problem 1368 {'problem': 0.5}
problem 1369 {'problem': 0.5}
problem 1371 {'problem': 0.5}
problem 1377 {'problem': 0.5454545454545454}
problem 28 {'problem': 0.5}
problem 29 {'problem': 0.5}
problem 30 {'problem': 0.5}
problem 65 {'problem': 0.5}
problem 94 {'problem': 0.5}
problem 99 {'problem': 0.5}
problem 129 {'problem': 0.5}
problem 131 {'problem': 0.5}
problem 133 {'problem': 0.5}
problem 161 {'problem': 0.5}
problem 162 {'problem': 0.5}
problem 182 {'problem': 0.5}
problem 187 {'problem': 0.5}
problem 190 {'problem': 0.5}
problem 248 {'problem': 0.5}
problem 250 {'problem': 0.5}
problem 341 {'problem': 0.5}
problem 390 {'problem': 0.5}
problem 393 {'problem': 0.5}
problem 405 {'problem': 0.5}
problem 408 {'problem': 0.5}
problem 411 {'problem': 0.5}
problem 487 {'problem': 0.5}
problem 551 {'problem': 0.5}
problem 568 {'problem': 0.5}
problem 580 {'problem': 0.5}
problem 584 {'problem': 0.5}
problem 597 {'problem': 0.5}
problem 705 {'problem': 0.5}
problem 707 {'problem': 0.5}
problem 710 {'problem': 0.5}
problem 712 {'problem': 0.5}
problem 714 {'problem': 0.5}
problem 726 {'problem': 0.5}
problem 727 {'problem': 0.5}
problem 745 {'problem': 0.5}
problem 747 {'problem': 0.5}
problem 749 {'problem': 0.5}
problem 750 {'problem': 0.5}
problem 751 {'problem': 0.5}
problem 801 {'problem': 0.5}
problem 803 {'problem': 0.5}
problem 804 {'problem': 0.5}
problem 806 {'problem': 0.5}
problem 809 {'problem': 0.5}
problem 814 {'problem': 0.5}
problem 820 {'problem': 0.5}
problem 823 {'problem': 0.5}
problem 825 {'problem': 0.5}
problem 834 {'problem': 0.5}
problem 835 {'problem': 0.5}
problem 841 {'problem': 0.5}
problem 842 {'problem': 0.5}
problem 849 {'problem': 0.5}
problem 851 {'problem': 0.5}
problem 853 {'problem': 0.5}
problem 856 {'problem': 0.5}
problem 859 {'problem': 0.5}
problem 863 {'problem': 0.5}
problem 865 {'problem': 0.5}
problem 867 {'problem': 0.5}
problem 870 {'problem': 0.5}
problem 872 {'problem': 0.5}
problem 879 {'problem': 0.5}
problem 917 {'problem': 0.5}
problem 935 {'problem': 0.5}
problem 936 {'problem': 0.5}
problem 993 {'problem': 0.5}
problem 996 {'problem': 0.5}
problem 999 {'problem': 0.5}
problem 1000 {'problem': 0.5}
problem 1006 {'problem': 0.5}
problem 1008 {'problem': 0.5}
problem 1015 {'problem': 0.5}
problem 1018 {'problem': 0.5}
problem 1019 {'problem': 0.5}
problem 1020 {'problem': 0.5}
problem 1022 {'problem': 0.5}
problem 1025 {'problem': 0.5}
problem 1027 {'problem': 0.5}
problem 1039 {'problem': 0.5}
problem 1040 {'problem': 0.5}
problem 1052 {'problem': 0.5}
problem 1097 {'problem': 0.5}
problem 1104 {'problem': 0.5}
problem 1108 {'problem': 0.5}
problem 1109 {'problem': 0.5}
problem 1115 {'problem': 0.5}
problem 1117 {'problem': 0.5}
problem 1127 {'problem': 0.5}
problem 1152 {'problem': 0.5}
problem 1155 {'problem': 0.5}
problem 1157 {'problem': 0.5}
problem 1158 {'problem': 0.5}
problem 1206 {'problem': 0.5}
problem 1223 {'problem': 0.5}
problem 1254 {'problem': 0.5}
problem 1301 {'problem': 0.5}
problem 1366 {'problem': 0.5}
problem 1376 {'problem': 0.5}
problem 1378 {'problem': 0.5}
problem 1379 {'problem': 0.5}
work 18 {'work': 0.5454545454545454}
work 27 {'work': 0.5454545454545454}
work 28 {'work': 0.5454545454545454}
work 33 {'work': 0.5454545454545454}
work 48 {'work': 0.5454545454545454}
work 94 {'work': 0.5454545454545454}
work 98 {'work': 0.5454545454545454}
work 107 {'work': 0.5454545454545454}
work 120 {'work': 0.5454545454545454}
work 121 {'work': 0.5454545454545454}
work 136 {'work': 0.5454545454545454}
work 137 {'work': 0.5454545454545454}
work 143 {'work': 0.5454545454545454}
work 145 {'work': 0.5454545454545454}
work 152 {'work': 0.5454545454545454}
work 180 {'work': 0.5454545454545454}
work 181 {'work': 0.5454545454545454}
work 191 {'work': 0.5454545454545454}
work 197 {'work': 0.5454545454545454}
work 202 {'work': 0.5454545454545454}
work 205 {'work': 0.5454545454545454}
work 206 {'work': 0.5454545454545454}
work 207 {'work': 0.5454545454545454}
work 235 {'work': 0.5454545454545454}
work 237 {'work': 0.5454545454545454}
work 238 {'work': 0.5454545454545454}
work 239 {'work': 0.5454545454545454}
work 247 {'work': 0.5454545454545454}
work 255 {'work': 0.5454545454545454}
work 287 {'work': 0.5454545454545454}
work 309 {'work': 0.5454545454545454}
work 321 {'work': 0.5454545454545454}
work 332 {'work': 0.5454545454545454}
work 337 {'work': 0.5454545454545454}
work 338 {'work': 0.5454545454545454}
work 354 {'work': 0.5454545454545454}
work 369 {'work': 0.5454545454545454}
work 393 {'work': 0.5454545454545454}
work 405 {'work': 0.5454545454545454}
work 406 {'work': 0.5454545454545454}
work 407 {'work': 0.5454545454545454}
work 409 {'work': 0.5454545454545454}
work 420 {'work': 0.5454545454545454}
work 422 {'work': 0.5454545454545454}
work 443 {'work': 0.5454545454545454}
work 449 {'work': 0.5454545454545454}
work 505 {'work': 0.5454545454545454}
work 510 {'work': 0.5454545454545454}
work 539 {'work': 0.5454545454545454}
work 563 {'work': 0.5454545454545454}
work 567 {'work': 0.5454545454545454}
work 591 {'work': 0.5454545454545454}
work 593 {'work': 0.5454545454545454}
work 595 {'work': 0.5454545454545454}
work 604 {'work': 0.5454545454545454}
work 626 {'work': 0.5454545454545454}
work 635 {'work': 0.5454545454545454}
work 642 {'work': 0.5454545454545454}
work 646 {'work': 0.5454545454545454}
work 658 {'work': 0.5454545454545454}
work 663 {'work': 0.5454545454545454}
work 705 {'work': 0.5454545454545454}
work 718 {'work': 0.5454545454545454}
work 725 {'work': 0.5454545454545454}
work 727 {'work': 0.5454545454545454}
work 733 {'work': 0.5454545454545454}
work 740 {'work': 0.5454545454545454}
work 745 {'work': 0.5454545454545454}
work 776 {'work': 0.5454545454545454}
work 782 {'work': 0.5454545454545454}
work 783 {'work': 0.5454545454545454}
work 784 {'work': 0.5454545454545454}
work 801 {'work': 0.5454545454545454}
work 810 {'work': 0.5454545454545454}
work 817 {'work': 0.5454545454545454}
work 852 {'work': 0.5454545454545454}
work 863 {'work': 0.5454545454545454}
work 880 {'work': 0.5454545454545454}
work 896 {'work': 0.5454545454545454}
work 899 {'work': 0.5454545454545454}
work 931 {'work': 0.5454545454545454}
work 950 {'work': 0.5454545454545454}
work 988 {'work': 0.5454545454545454}
work 994 {'work': 0.5454545454545454}
work 1016 {'work': 0.5454545454545454}
work 1027 {'work': 0.5454545454545454}
work 1028 {'work': 0.5454545454545454}
work 1035 {'work': 0.5454545454545454}
work 1039 {'work': 0.5454545454545454}
work 1049 {'work': 0.5454545454545454}
work 1061 {'work': 0.5454545454545454}
work 1063 {'work': 0.5454545454545454}
work 1064 {'work': 0.5454545454545454}
work 1106 {'work': 0.5454545454545454}
work 1127 {'work': 0.5454545454545454}
work 1140 {'work': 0.5454545454545454}
work 1168 {'work': 0.5454545454545454}
work 1170 {'work': 0.5454545454545454}
work 1247 {'work': 0.5454545454545454}
work 1265 {'work': 0.5454545454545454}
work 1288 {'work': 0.5454545454545454}
work 1289 {'work': 0.5454545454545454}
work 1294 {'work': 0.5454545454545454}
work 1295 {'work': 0.5454545454545454}
work 1301 {'work': 0.5454545454545454}
work 1322 {'work': 0.5454545454545454}
work 1339 {'work': 0.5454545454545454}
work 1362 {'work': 0.5454545454545454}
work 1364 {'work': 0.5454545454545454}
light 40 {'light': 0.938577013213164}
light 45 {'light': 0.95804727355588}
light 123 {'light': 0.938577013213164}
light 143 {'light': 0.938577013213164}
light 209 {'light': 0.938577013213164}
light 214 {'light': 0.938577013213164}
light 237 {'light': 0.938577013213164}
light 264 {'light': 0.938577013213164}
light 278 {'light': 0.938577013213164}
light 394 {'light': 0.938577013213164}
light 434 {'light': 0.938577013213164}
light 442 {'light': 0.938577013213164}
light 445 {'light': 0.938577013213164}
light 471 {'light': 0.938577013213164}
light 489 {'light': 0.938577013213164}
light 587 {'light': 0.938577013213164}
light 711 {'light': 0.938577013213164}
light 714 {'light': 0.938577013213164}
light 803 {'light': 0.938577013213164}
light 1197 {'light': 0.938577013213164}
light 1222 {'light': 0.938577013213164}
light 1236 {'light': 0.938577013213164}
light 1295 {'light': 0.938577013213164}
light 1300 {'light': 0.938577013213164}
light 1343 {'light': 0.938577013213164}
light 0 {'light': 0.5454545454545454}
light 114 {'light': 0.5454545454545454}
light 173 {'light': 0.5454545454545454}
light 182 {'light': 0.5454545454545454}
light 204 {'light': 0.6895393384704224}
light 252 {'light': 0.5454545454545454}
light 298 {'light': 0.5454545454545454}
light 561 {'light': 0.5454545454545454}
light 989 {'light': 0.5454545454545454}
light 1048 {'light': 0.5454545454545454}
light 1211 {'light': 0.5454545454545454}
light 1240 {'light': 0.5454545454545454}
light 1314 {'light': 0.5454545454545454}
light 1443 {'light': 0.5454545454545454}
light 1461 {'light': 0.5454545454545454}
light 1622 {'light': 0.5454545454545454}
light 1687 {'light': 0.5454545454545454}
light 1737 {'light': 0.5454545454545454}
light 1807 {'light': 0.5454545454545454}
light 1850 {'light': 0.5454545454545454}
light 2260 {'light': 0.5454545454545454}
light 2262 {'light': 0.5454545454545454}
light 2366 {'light': 0.5454545454545454}
light 2488 {'light': 0.5454545454545454}
light 2533 {'light': 0.5454545454545454}
light 2549 {'light': 0.5454545454545454}
light 2650 {'light': 0.5454545454545454}
light 2664 {'light': 0.5454545454545454}
light 2695 {'light': 0.5454545454545454}
light 2864 {'light': 0.5454545454545454}
light 2928 {'light': 0.5454545454545454}
light 3037 {'light': 0.5454545454545454}
light 3118 {'light': 0.5454545454545454}
light 3159 {'light': 0.5454545454545454}
light 3369 {'light': 0.5454545454545454}
light 3387 {'light': 0.5454545454545454}
light 3480 {'light': 0.5454545454545454}
light 3539 {'light': 0.5454545454545454}
light 3560 {'light': 0.5454545454545454}
light 3572 {'light': 0.5454545454545454}
light 3579 {'light': 0.5454545454545454}
light 3668 {'light': 0.5454545454545454}
light 3671 {'light': 0.5454545454545454}
light 3750 {'light': 0.5454545454545454}
light 3907 {'light': 0.5454545454545454}
light 3944 {'light': 0.5454545454545454}
light 3986 {'light': 0.5454545454545454}
light 4092 {'light': 0.5454545454545454}
light 4112 {'light': 0.5454545454545454}
light 4207 {'light': 0.5454545454545454}
light 4214 {'light': 0.5454545454545454}
light 4237 {'light': 0.5454545454545454}
light 4259 {'light': 0.5454545454545454}
light 4263 {'light': 0.5454545454545454}
light 4362 {'light': 0.5454545454545454}
light 4422 {'light': 0.5454545454545454}
light 4432 {'light': 0.5454545454545454}
light 4534 {'light': 0.5454545454545454}
light 4822 {'light': 0.5454545454545454}
light 4836 {'light': 0.5454545454545454}
light 5088 {'light': 0.5454545454545454}
light 5227 {'light': 0.5454545454545454}
light 5270 {'light': 0.5454545454545454}
light 5479 {'light': 0.5454545454545454}
light 5612 {'light': 0.5454545454545454}
light 5614 {'light': 0.5454545454545454}
light 5618 {'light': 0.5454545454545454}
light 5643 {'light': 0.5454545454545454}
light 5653 {'light': 0.5454545454545454}
light 5849 {'light': 0.5454545454545454}
light 5981 {'light': 0.5454545454545454}
light 6089 {'light': 0.5454545454545454}
light 6092 {'light': 0.5454545454545454}
light 6134 {'light': 0.5454545454545454}
light 6165 {'light': 0.5454545454545454}
light 6175 {'light': 0.5454545454545454}
light 6179 {'light': 0.5454545454545454}
light 6289 {'light': 0.5454545454545454}
light 6454 {'light': 0.5454545454545454}
light 6544 {'light': 0.5454545454545454}
light 6598 {'light': 0.5454545454545454}
light 6640 {'light': 0.5454545454545454}
light 6837 {'light': 0.5454545454545454}
light 7122 {'light': 0.5454545454545454}
light 7207 {'light': 0.5454545454545454}
light 7294 {'light': 0.6895393384704224}
light 7325 {'light': 0.5454545454545454}
light 7338 {'light': 0.5454545454545454}
light 7394 {'light': 0.5454545454545454}
light 7413 {'light': 0.5454545454545454}
light 7558 {'light': 0.5454545454545454}
light 7580 {'light': 0.5454545454545454}
light 7622 {'light': 0.5454545454545454}
light 7698 {'light': 0.5454545454545454}
light 7703 {'light': 0.5454545454545454}
light 7846 {'light': 0.5454545454545454}
light 7885 {'light': 0.6895393384704224}
light 8193 {'light': 0.5454545454545454}
light 8202 {'light': 0.5454545454545454}
light 8262 {'light': 0.5454545454545454}
light 8406 {'light': 0.5454545454545454}
light 8463 {'light': 0.5454545454545454}
light 8464 {'light': 0.5454545454545454}
light 8516 {'light': 0.5454545454545454}
light 8534 {'light': 0.6895393384704224}
light 8542 {'light': 0.5454545454545454}
light 8685 {'light': 0.5454545454545454}
light 8693 {'light': 0.5454545454545454}
light 8731 {'light': 0.5454545454545454}
light 8785 {'light': 0.5454545454545454}
light 8798 {'light': 0.5454545454545454}
light 8814 {'light': 0.5454545454545454}
light 8886 {'light': 0.5454545454545454}
light 8897 {'light': 0.5454545454545454}
light 8925 {'light': 0.5454545454545454}
light 8941 {'light': 0.5454545454545454}
light 8958 {'light': 0.5454545454545454}
light 8998 {'light': 0.5454545454545454}
light 9164 {'light': 0.5454545454545454}
light 9244 {'light': 0.5454545454545454}
light 9309 {'light': 0.5454545454545454}
light 9392 {'light': 0.5454545454545454}
light 9430 {'light': 0.5454545454545454}
light 9447 {'light': 0.5454545454545454}
light 9456 {'light': 0.5454545454545454}
light 9480 {'light': 0.5454545454545454}
light 9550 {'light': 0.5454545454545454}
light 9668 {'light': 0.5454545454545454}
light 9732 {'light': 0.5454545454545454}
light 9753 {'light': 0.5454545454545454}
light 9766 {'light': 0.5454545454545454}
light 9836 {'light': 0.5454545454545454}
light 9998 {'light': 0.6895393384704224}
light 10188 {'light': 0.5454545454545454}
light 10239 {'light': 0.5454545454545454}
light 10282 {'light': 0.5454545454545454}
light 10375 {'light': 0.5454545454545454}
light 10464 {'light': 0.5454545454545454}
light 10501 {'light': 0.5454545454545454}
light 10542 {'light': 0.5454545454545454}
light 10628 {'light': 0.5454545454545454}
light 10736 {'light': 0.5454545454545454}
light 10785 {'light': 0.5454545454545454}
light 11143 {'light': 0.5454545454545454}
light 11226 {'light': 0.5454545454545454}
light 11303 {'light': 0.5454545454545454}
light 11321 {'light': 0.5454545454545454}
light 11351 {'light': 0.5454545454545454}
light 11563 {'light': 0.5454545454545454}
light 11617 {'light': 0.5454545454545454}
light 11636 {'light': 0.5454545454545454}
light 11653 {'light': 0.5454545454545454}
light 11717 {'light': 0.5454545454545454}
light 11839 {'light': 0.5454545454545454}
light 11942 {'light': 0.5454545454545454}
light 12013 {'light': 0.5454545454545454}
light 12100 {'light': 0.5454545454545454}
light 12142 {'light': 0.5454545454545454}
light 12187 {'light': 0.5454545454545454}
light 12221 {'light': 0.5454545454545454}
light 12235 {'light': 0.5454545454545454}
light 12253 {'light': 0.5454545454545454}
light 12255 {'light': 0.5454545454545454}
light 12262 {'light': 0.5454545454545454}
light 12311 {'light': 0.5454545454545454}
light 12317 {'light': 0.5454545454545454}
light 12323 {'light': 0.5454545454545454}
light 12332 {'light': 0.5454545454545454}
light 12335 {'light': 0.5454545454545454}
light 12358 {'light': 0.6895393384704224}
light 12386 {'light': 0.6895393384704224}
light 12403 {'light': 0.6895393384704224}
light 12415 {'light': 0.5454545454545454}
light 12420 {'light': 0.5454545454545454}
light 12451 {'light': 0.5454545454545454}
light 12508 {'light': 0.5454545454545454}
light 12525 {'light': 0.5454545454545454}
light 12526 {'light': 0.6895393384704224}
light 12551 {'light': 0.5454545454545454}
light 12555 {'light': 0.5454545454545454}
light 12561 {'light': 0.5454545454545454}
light 12567 {'light': 0.5454545454545454}
light 12602 {'light': 0.5454545454545454}
light 12608 {'light': 0.5454545454545454}
light 12619 {'light': 0.5454545454545454}
light 12643 {'light': 0.5454545454545454}
light 12656 {'light': 0.5454545454545454}
light 12663 {'light': 0.5454545454545454}
light 12688 {'light': 0.5454545454545454}
light 12702 {'light': 0.5454545454545454}
light 12710 {'light': 0.5454545454545454}
light 12719 {'light': 0.5454545454545454}
light 12732 {'light': 0.5454545454545454}
light 12737 {'light': 0.5454545454545454}
light 12739 {'light': 0.5454545454545454}
light 12762 {'light': 0.5454545454545454}
light 12765 {'light': 0.5454545454545454}
light 12786 {'light': 0.5454545454545454}
light 12807 {'light': 0.5454545454545454}
light 12820 {'light': 0.5454545454545454}
light 12848 {'light': 0.5454545454545454}
light 12880 {'light': 0.5454545454545454}
light 12912 {'light': 0.6895393384704224}
light 12931 {'light': 0.5454545454545454}
light 13002 {'light': 0.5454545454545454}
light 13007 {'light': 0.5454545454545454}
light 13237 {'light': 0.5454545454545454}
light 13429 {'light': 0.5454545454545454}
light 13441 {'light': 0.5454545454545454}
light 13445 {'light': 0.5454545454545454}
light 13507 {'light': 0.5454545454545454}
light 13553 {'light': 0.5454545454545454}
light 13620 {'light': 0.5454545454545454}
light 13646 {'light': 0.5454545454545454}
light 13693 {'light': 0.5454545454545454}
light 13698 {'light': 0.5454545454545454}
light 13889 {'light': 0.5454545454545454}
light 13983 {'light': 0.5454545454545454}
light 14111 {'light': 0.5454545454545454}
light 14149 {'light': 0.5454545454545454}
light 14178 {'light': 0.6895393384704224}
light 14306 {'light': 0.5454545454545454}
light 14315 {'light': 0.5454545454545454}
light 14420 {'light': 0.5454545454545454}
light 14641 {'light': 0.5454545454545454}
light 14791 {'light': 0.5454545454545454}
light 14928 {'light': 0.5454545454545454}
light 14936 {'light': 0.5454545454545454}
light 14951 {'light': 0.5454545454545454}
light 14953 {'light': 0.5454545454545454}
light 15073 {'light': 0.5454545454545454}
light 15154 {'light': 0.5454545454545454}
light 15222 {'light': 0.5454545454545454}
light 15227 {'light': 0.5454545454545454}
light 15240 {'light': 0.5454545454545454}
light 15245 {'light': 0.5454545454545454}
light 15279 {'light': 0.5454545454545454}
light 15292 {'light': 0.5454545454545454}
light 15440 {'light': 0.5454545454545454}
light 15453 {'light': 0.5454545454545454}
light 15456 {'light': 0.5454545454545454}
light 15575 {'light': 0.5454545454545454}
light 15685 {'light': 0.5454545454545454}
light 15707 {'light': 0.5454545454545454}
light 15710 {'light': 0.5454545454545454}
light 15839 {'light': 0.5454545454545454}
light 15861 {'light': 0.5454545454545454}
light 15869 {'light': 0.5454545454545454}
light 15966 {'light': 0.5454545454545454}
light 16075 {'light': 0.5454545454545454}
light 16156 {'light': 0.5454545454545454}
light 16224 {'light': 0.5454545454545454}
light 16288 {'light': 0.5454545454545454}
light 16371 {'light': 0.5454545454545454}
light 16395 {'light': 0.5454545454545454}
light 16431 {'light': 0.5454545454545454}
light 16457 {'light': 0.5454545454545454}
light 16481 {'light': 0.5454545454545454}
light 16547 {'light': 0.6895393384704224}
light 16573 {'light': 0.5454545454545454}
light 16589 {'light': 0.5454545454545454}
light 16625 {'light': 0.6895393384704224}
light 16632 {'light': 0.5454545454545454}
light 16657 {'light': 0.5454545454545454}
light 16665 {'light': 0.5454545454545454}
light 16689 {'light': 0.5454545454545454}
light 16695 {'light': 0.5454545454545454}
light 16715 {'light': 0.5454545454545454}
light 16756 {'light': 0.5454545454545454}
light 16964 {'light': 0.5454545454545454}
light 16992 {'light': 0.6895393384704224}
light 17116 {'light': 0.5454545454545454}
light 17123 {'light': 0.5454545454545454}
light 17166 {'light': 0.5454545454545454}
light 17252 {'light': 0.5454545454545454}
light 17355 {'light': 0.5454545454545454}
light 17393 {'light': 0.5454545454545454}
light 17405 {'light': 0.5454545454545454}
light 17500 {'light': 0.5454545454545454}
light 17516 {'light': 0.5454545454545454}
light 17657 {'light': 0.5454545454545454}
light 17729 {'light': 0.5454545454545454}
light 17763 {'light': 0.5454545454545454}
light 17809 {'light': 0.5454545454545454}
light 17822 {'light': 0.5454545454545454}
light 17965 {'light': 0.5454545454545454}
light 18204 {'light': 0.5454545454545454}
light 18339 {'light': 0.5454545454545454}
light 18349 {'light': 0.5454545454545454}
light 18378 {'light': 0.5454545454545454}
light 18430 {'light': 0.5454545454545454}
light 18533 {'light': 0.5454545454545454}
light 18580 {'light': 0.5454545454545454}
light 18623 {'light': 0.5454545454545454}
light 18638 {'light': 0.6895393384704224}
light 18680 {'light': 0.5454545454545454}
light 18700 {'light': 0.5454545454545454}
light 18735 {'light': 0.5454545454545454}
light 18971 {'light': 0.5454545454545454}
light 18987 {'light': 0.5454545454545454}
light 19 {'light': 0.6584932723174647}
light 82 {'light': 0.6584932723174647}
light 134 {'light': 0.6584932723174647}
light 168 {'light': 0.6584932723174647}
light 192 {'light': 0.6584932723174647}
light 193 {'light': 0.6584932723174647}
light 347 {'light': 0.6584932723174647}
light 377 {'light': 0.6584932723174647}
light 396 {'light': 0.6584932723174647}
light 410 {'light': 0.6584932723174647}
light 429 {'light': 0.6584932723174647}
light 456 {'light': 0.6584932723174647}
light 545 {'light': 0.6584932723174647}
light 546 {'light': 0.6584932723174647}
light 592 {'light': 0.6584932723174647}
light 593 {'light': 0.6584932723174647}
light 632 {'light': 0.6584932723174647}
light 637 {'light': 0.6584932723174647}
light 775 {'light': 0.6584932723174647}
light 780 {'light': 0.6584932723174647}
light 884 {'light': 0.6584932723174647}
light 893 {'light': 0.6584932723174647}
light 970 {'light': 0.6584932723174647}
light 1004 {'light': 0.6584932723174647}
light 1005 {'light': 0.6584932723174647}
light 1199 {'light': 0.6584932723174647}
light 1380 {'light': 0.6584932723174647}
light 1401 {'light': 0.6584932723174647}
light 1429 {'light': 0.6584932723174647}
light 1459 {'light': 0.6584932723174647}
light 1465 {'light': 0.6584932723174647}
light 1468 {'light': 0.6584932723174647}
light 1470 {'light': 0.6584932723174647}
light 1521 {'light': 0.6584932723174647}
light 1604 {'light': 0.6584932723174647}
light 1606 {'light': 0.6584932723174647}
light 1624 {'light': 0.6584932723174647}
light 1696 {'light': 0.6584932723174647}
light 1723 {'light': 0.6584932723174647}
light 1806 {'light': 0.6584932723174647}
light 1871 {'light': 0.6584932723174647}
light 1976 {'light': 0.6584932723174647}
light 2208 {'light': 0.6584932723174647}
light 2316 {'light': 0.6584932723174647}
light 2317 {'light': 0.6584932723174647}
light 2600 {'light': 0.6584932723174647}
light 2612 {'light': 0.6584932723174647}
light 2634 {'light': 0.6584932723174647}
light 2721 {'light': 0.6584932723174647}
light 2759 {'light': 0.6584932723174647}
light 2762 {'light': 0.6584932723174647}
light 2835 {'light': 0.6584932723174647}
light 2842 {'light': 0.6584932723174647}
light 2858 {'light': 0.6584932723174647}
light 2877 {'light': 0.6584932723174647}
light 2904 {'light': 0.6584932723174647}
light 2980 {'light': 0.6584932723174647}
light 2993 {'light': 0.6584932723174647}
light 3003 {'light': 0.6584932723174647}
light 3071 {'light': 0.6584932723174647}
light 3100 {'light': 0.6584932723174647}
light 3123 {'light': 0.6584932723174647}
light 3128 {'light': 0.6584932723174647}
light 3132 {'light': 0.6584932723174647}
light 3136 {'light': 0.6584932723174647}
light 3150 {'light': 0.6584932723174647}
light 3186 {'light': 0.6584932723174647}
light 3247 {'light': 0.6584932723174647}
light 3302 {'light': 0.6584932723174647}
light 3342 {'light': 0.6584932723174647}
light 3469 {'light': 0.6584932723174647}
light 3472 {'light': 0.6584932723174647}
light 3597 {'light': 0.6584932723174647}
light 3684 {'light': 0.6584932723174647}
light 3689 {'light': 0.6584932723174647}
light 3740 {'light': 0.6584932723174647}
light 3898 {'light': 0.6584932723174647}
light 3899 {'light': 0.6584932723174647}
light 3935 {'light': 0.6584932723174647}
light 3955 {'light': 0.6584932723174647}
light 4119 {'light': 0.6584932723174647}
light 4126 {'light': 0.6584932723174647}
light 4136 {'light': 0.6584932723174647}
light 4209 {'light': 0.6584932723174647}
light 4264 {'light': 0.6584932723174647}
light 4317 {'light': 0.6584932723174647}
light 4358 {'light': 0.6584932723174647}
light 4372 {'light': 0.6584932723174647}
light 4374 {'light': 0.6584932723174647}
light 4377 {'light': 0.6584932723174647}
light 4420 {'light': 0.6584932723174647}
light 4448 {'light': 0.6584932723174647}
light 4581 {'light': 0.6584932723174647}
light 4630 {'light': 0.6584932723174647}
light 4662 {'light': 0.6584932723174647}
light 4699 {'light': 0.6584932723174647}
light 4734 {'light': 0.6584932723174647}
light 4737 {'light': 0.6584932723174647}
light 4748 {'light': 0.6584932723174647}
light 4767 {'light': 0.6584932723174647}
light 4864 {'light': 0.6584932723174647}
light 4988 {'light': 0.6584932723174647}
light 5053 {'light': 0.6584932723174647}
light 5468 {'light': 0.6584932723174647}
light 5745 {'light': 0.6584932723174647}
light 5828 {'light': 0.6584932723174647}
light 5897 {'light': 0.6584932723174647}
light 5901 {'light': 0.6584932723174647}
light 5911 {'light': 0.6584932723174647}
light 5926 {'light': 0.6584932723174647}
light 5952 {'light': 0.6584932723174647}
light 5960 {'light': 0.6584932723174647}
light 5985 {'light': 0.6584932723174647}
light 6024 {'light': 0.6584932723174647}
light 6035 {'light': 0.6584932723174647}
light 6038 {'light': 0.6584932723174647}
light 6050 {'light': 0.6584932723174647}
light 6054 {'light': 0.6584932723174647}
light 6084 {'light': 0.6584932723174647}
light 6136 {'light': 0.6584932723174647}
light 6178 {'light': 0.6584932723174647}
light 6188 {'light': 0.6584932723174647}
light 6210 {'light': 0.6584932723174647}
light 6298 {'light': 0.6584932723174647}
light 6330 {'light': 0.6584932723174647}
light 6349 {'light': 0.6584932723174647}
light 6457 {'light': 0.6584932723174647}
light 6516 {'light': 0.6584932723174647}
light 6520 {'light': 0.6584932723174647}
light 6531 {'light': 0.6584932723174647}
light 6535 {'light': 0.6584932723174647}
light 6597 {'light': 0.6584932723174647}
light 6641 {'light': 0.6584932723174647}
light 6648 {'light': 0.6584932723174647}
light 6661 {'light': 0.6584932723174647}
light 6678 {'light': 0.6584932723174647}
light 6702 {'light': 0.6584932723174647}
light 6723 {'light': 0.6584932723174647}
light 6780 {'light': 0.6584932723174647}
light 6788 {'light': 0.6584932723174647}
light 6791 {'light': 0.6584932723174647}
light 6792 {'light': 0.6584932723174647}
light 6797 {'light': 0.6584932723174647}
light 6801 {'light': 0.6584932723174647}
light 6805 {'light': 0.6584932723174647}
light 6809 {'light': 0.6584932723174647}
light 6811 {'light': 0.6584932723174647}
light 6814 {'light': 0.6584932723174647}
light 6819 {'light': 0.6584932723174647}
light 6824 {'light': 0.6584932723174647}
light 6830 {'light': 0.6584932723174647}
light 6833 {'light': 0.6584932723174647}
light 6840 {'light': 0.6584932723174647}
light 6856 {'light': 0.6584932723174647}
light 6857 {'light': 0.6584932723174647}
light 6859 {'light': 0.6584932723174647}
light 6863 {'light': 0.6584932723174647}
light 6883 {'light': 0.6584932723174647}
light 6899 {'light': 0.6584932723174647}
light 6920 {'light': 0.6584932723174647}
light 6921 {'light': 0.6584932723174647}
light 6923 {'light': 0.6584932723174647}
light 6950 {'light': 0.6584932723174647}
light 6959 {'light': 0.6584932723174647}
light 6960 {'light': 0.6584932723174647}
light 6963 {'light': 0.6584932723174647}
light 6967 {'light': 0.6584932723174647}
light 7000 {'light': 0.6584932723174647}
light 7002 {'light': 0.6584932723174647}
light 7006 {'light': 0.6584932723174647}
light 7015 {'light': 0.6584932723174647}
light 7033 {'light': 0.6584932723174647}
light 7063 {'light': 0.6584932723174647}
light 7064 {'light': 0.6584932723174647}
light 7216 {'light': 0.6584932723174647}
light 7238 {'light': 0.6584932723174647}
light 7245 {'light': 0.6584932723174647}
light 7260 {'light': 0.6584932723174647}
light 7263 {'light': 0.6584932723174647}
light 7265 {'light': 0.6584932723174647}
light 7266 {'light': 0.6584932723174647}
light 7267 {'light': 0.6584932723174647}
light 7281 {'light': 0.6584932723174647}
light 7288 {'light': 0.6584932723174647}
light 7301 {'light': 0.6584932723174647}
light 7311 {'light': 0.6584932723174647}
light 7312 {'light': 0.6584932723174647}
light 7322 {'light': 0.6584932723174647}
light 7354 {'light': 0.6584932723174647}
light 7361 {'light': 0.6584932723174647}
light 7372 {'light': 0.6584932723174647}
light 7385 {'light': 0.6584932723174647}
light 7391 {'light': 0.6584932723174647}
light 7442 {'light': 0.6584932723174647}
light 7444 {'light': 0.6584932723174647}
light 7462 {'light': 0.6584932723174647}
light 7475 {'light': 0.6584932723174647}
light 7484 {'light': 0.6584932723174647}
light 7496 {'light': 0.6584932723174647}
light 7498 {'light': 0.6584932723174647}
light 7511 {'light': 0.6584932723174647}
light 7513 {'light': 0.6584932723174647}
light 7528 {'light': 0.6584932723174647}
light 7544 {'light': 0.6584932723174647}
light 7555 {'light': 0.6584932723174647}
light 7561 {'light': 0.6584932723174647}
light 7570 {'light': 0.6584932723174647}
light 7590 {'light': 0.6584932723174647}
light 7611 {'light': 0.6584932723174647}
light 7638 {'light': 0.6584932723174647}
light 7642 {'light': 0.6584932723174647}
light 7651 {'light': 0.6584932723174647}
light 7667 {'light': 0.6584932723174647}
light 7683 {'light': 0.6584932723174647}
light 7686 {'light': 0.6584932723174647}
light 7744 {'light': 0.6584932723174647}
light 7767 {'light': 0.6584932723174647}
light 7777 {'light': 0.6584932723174647}
light 7782 {'light': 0.6584932723174647}
light 7789 {'light': 0.6584932723174647}
light 7861 {'light': 0.6584932723174647}
light 7881 {'light': 0.6584932723174647}
light 7886 {'light': 0.6584932723174647}
light 7892 {'light': 0.6584932723174647}
light 7902 {'light': 0.6584932723174647}
light 7917 {'light': 0.6584932723174647}
light 7933 {'light': 0.6584932723174647}
light 7985 {'light': 0.6584932723174647}
light 7988 {'light': 0.6584932723174647}
light 7994 {'light': 0.6584932723174647}
light 8016 {'light': 0.6584932723174647}
light 8021 {'light': 0.6584932723174647}
light 8030 {'light': 0.6584932723174647}
light 8039 {'light': 0.6584932723174647}
light 8060 {'light': 0.6584932723174647}
light 8065 {'light': 0.6584932723174647}
light 8119 {'light': 0.6584932723174647}
light 8132 {'light': 0.6584932723174647}
light 8210 {'light': 0.6584932723174647}
light 8221 {'light': 0.6584932723174647}
light 8224 {'light': 0.6584932723174647}
light 8252 {'light': 0.6584932723174647}
light 8253 {'light': 0.6584932723174647}
light 8295 {'light': 0.6584932723174647}
light 8323 {'light': 0.6584932723174647}
light 8326 {'light': 0.6584932723174647}
light 8331 {'light': 0.6584932723174647}
light 8336 {'light': 0.6584932723174647}
light 8346 {'light': 0.6584932723174647}
light 8349 {'light': 0.6584932723174647}
light 8355 {'light': 0.6584932723174647}
light 8358 {'light': 0.6584932723174647}
light 8386 {'light': 0.6584932723174647}
light 8389 {'light': 0.6584932723174647}
light 8411 {'light': 0.6584932723174647}
light 8415 {'light': 0.6584932723174647}
light 8432 {'light': 0.6584932723174647}
light 8481 {'light': 0.6584932723174647}
light 8487 {'light': 0.6584932723174647}
light 8513 {'light': 0.6584932723174647}
light 8532 {'light': 0.6584932723174647}
light 8546 {'light': 0.6584932723174647}
light 8565 {'light': 0.6584932723174647}
light 8579 {'light': 0.6584932723174647}
light 8599 {'light': 0.6584932723174647}
light 8606 {'light': 0.6584932723174647}
light 8614 {'light': 0.6584932723174647}
light 8628 {'light': 0.6584932723174647}
light 8634 {'light': 0.6584932723174647}
light 8635 {'light': 0.6584932723174647}
light 9090 {'light': 0.6584932723174647}
light 9143 {'light': 0.6584932723174647}
light 9232 {'light': 0.6584932723174647}
light 9339 {'light': 0.6584932723174647}
light 9340 {'light': 0.6584932723174647}
light 9385 {'light': 0.6584932723174647}
light 9416 {'light': 0.6584932723174647}
light 9557 {'light': 0.6584932723174647}
light 9577 {'light': 0.6584932723174647}
light 9596 {'light': 0.6584932723174647}
light 9750 {'light': 0.6584932723174647}
light 9805 {'light': 0.6584932723174647}
light 9829 {'light': 0.6584932723174647}
light 9831 {'light': 0.6584932723174647}
light 9952 {'light': 0.6584932723174647}
light 9955 {'light': 0.6584932723174647}
light 10058 {'light': 0.6584932723174647}
light 10064 {'light': 0.6584932723174647}
light 10103 {'light': 0.6584932723174647}
light 10412 {'light': 0.6584932723174647}
light 10493 {'light': 0.6584932723174647}
light 10503 {'light': 0.6584932723174647}
light 10629 {'light': 0.6584932723174647}
light 10662 {'light': 0.6584932723174647}
light 10701 {'light': 0.6584932723174647}
light 10774 {'light': 0.6584932723174647}
light 10788 {'light': 0.6584932723174647}
light 10886 {'light': 0.6584932723174647}
light 10910 {'light': 0.6584932723174647}
light 10938 {'light': 0.6584932723174647}
light 11024 {'light': 0.6584932723174647}
light 11036 {'light': 0.6584932723174647}
light 11112 {'light': 0.6584932723174647}
light 11121 {'light': 0.6584932723174647}
light 11129 {'light': 0.6584932723174647}
light 11164 {'light': 0.6584932723174647}
light 11182 {'light': 0.6584932723174647}
light 11215 {'light': 0.6584932723174647}
light 11260 {'light': 0.6584932723174647}
light 11372 {'light': 0.6584932723174647}
light 11549 {'light': 0.6584932723174647}
light 11590 {'light': 0.6584932723174647}
light 11622 {'light': 0.6584932723174647}
light 11646 {'light': 0.6584932723174647}
light 11652 {'light': 0.6584932723174647}
light 11657 {'light': 0.6584932723174647}
light 11659 {'light': 0.6584932723174647}
light 11722 {'light': 0.6584932723174647}
light 11740 {'light': 0.6584932723174647}
light 11743 {'light': 0.6584932723174647}
light 11745 {'light': 0.6584932723174647}
light 11750 {'light': 0.6584932723174647}
light 11782 {'light': 0.6584932723174647}
light 11788 {'light': 0.6584932723174647}
light 11802 {'light': 0.6584932723174647}
light 11813 {'light': 0.6584932723174647}
light 11833 {'light': 0.6584932723174647}
light 11881 {'light': 0.6584932723174647}
light 11884 {'light': 0.6584932723174647}
light 11886 {'light': 0.6584932723174647}
light 11887 {'light': 0.6584932723174647}
light 11894 {'light': 0.6584932723174647}
light 11906 {'light': 0.6584932723174647}
light 11945 {'light': 0.6584932723174647}
light 11966 {'light': 0.6584932723174647}
light 11976 {'light': 0.6584932723174647}
light 12012 {'light': 0.6584932723174647}
light 12018 {'light': 0.6584932723174647}
light 12023 {'light': 0.6584932723174647}
light 12053 {'light': 0.6584932723174647}
light 12063 {'light': 0.6584932723174647}
light 12075 {'light': 0.6584932723174647}
light 12081 {'light': 0.6584932723174647}
light 12086 {'light': 0.6584932723174647}
light 12098 {'light': 0.6584932723174647}
light 12099 {'light': 0.6584932723174647}
light 12125 {'light': 0.6584932723174647}
light 12168 {'light': 0.6584932723174647}
light 12169 {'light': 0.6584932723174647}
light 12174 {'light': 0.6584932723174647}
light 12182 {'light': 0.6584932723174647}
light 12183 {'light': 0.6584932723174647}
light 12191 {'light': 0.6584932723174647}
light 12198 {'light': 0.6584932723174647}
light 12224 {'light': 0.6584932723174647}
light 12231 {'light': 0.6584932723174647}
light 12239 {'light': 0.6584932723174647}
light 12276 {'light': 0.6584932723174647}
light 12308 {'light': 0.6584932723174647}
light 12352 {'light': 0.6584932723174647}
light 12354 {'light': 0.6584932723174647}
light 12361 {'light': 0.6584932723174647}
light 12363 {'light': 0.6584932723174647}
light 12364 {'light': 0.6584932723174647}
light 12376 {'light': 0.6584932723174647}
light 12387 {'light': 0.6584932723174647}
light 12390 {'light': 0.6584932723174647}
light 12402 {'light': 0.6584932723174647}
light 12418 {'light': 0.6584932723174647}
light 12448 {'light': 0.6584932723174647}
light 12455 {'light': 0.6584932723174647}
light 12460 {'light': 0.6584932723174647}
light 12481 {'light': 0.6584932723174647}
light 12521 {'light': 0.6584932723174647}
light 12530 {'light': 0.6584932723174647}
light 12558 {'light': 0.6584932723174647}
light 12559 {'light': 0.6584932723174647}
light 12566 {'light': 0.6584932723174647}
light 12570 {'light': 0.6584932723174647}
light 12581 {'light': 0.6584932723174647}
light 12593 {'light': 0.6584932723174647}
light 12616 {'light': 0.6584932723174647}
light 12622 {'light': 0.6584932723174647}
light 12625 {'light': 0.6584932723174647}
light 12645 {'light': 0.6584932723174647}
light 12711 {'light': 0.6584932723174647}
light 12712 {'light': 0.6584932723174647}
light 12714 {'light': 0.6584932723174647}
light 12715 {'light': 0.6584932723174647}
light 12747 {'light': 0.6584932723174647}
light 12798 {'light': 0.6584932723174647}
light 12860 {'light': 0.6584932723174647}
light 12864 {'light': 0.6584932723174647}
light 12946 {'light': 0.6584932723174647}
light 12976 {'light': 0.6584932723174647}
light 13014 {'light': 0.6584932723174647}
light 13015 {'light': 0.6584932723174647}
light 13018 {'light': 0.6584932723174647}
light 13063 {'light': 0.6584932723174647}
light 13080 {'light': 0.6584932723174647}
light 13081 {'light': 0.6584932723174647}
light 13128 {'light': 0.6584932723174647}
light 13241 {'light': 0.6584932723174647}
light 13258 {'light': 0.6584932723174647}
light 13265 {'light': 0.6584932723174647}
light 13294 {'light': 0.6584932723174647}
light 13367 {'light': 0.6584932723174647}
light 13431 {'light': 0.6584932723174647}
light 13508 {'light': 0.6584932723174647}
light 13592 {'light': 0.6584932723174647}
light 13593 {'light': 0.6584932723174647}
light 13630 {'light': 0.6584932723174647}
light 13673 {'light': 0.6584932723174647}
light 13697 {'light': 0.6584932723174647}
light 13722 {'light': 0.6584932723174647}
light 13812 {'light': 0.6584932723174647}
light 13820 {'light': 0.6584932723174647}
light 13886 {'light': 0.6584932723174647}
light 13907 {'light': 0.6584932723174647}
light 13918 {'light': 0.6584932723174647}
light 13924 {'light': 0.6584932723174647}
light 13927 {'light': 0.6584932723174647}
light 13943 {'light': 0.6584932723174647}
light 13952 {'light': 0.6584932723174647}
light 13967 {'light': 0.6584932723174647}
light 13971 {'light': 0.6584932723174647}
light 13979 {'light': 0.6584932723174647}
light 13982 {'light': 0.6584932723174647}
light 13985 {'light': 0.6584932723174647}
light 14032 {'light': 0.6584932723174647}
light 14036 {'light': 0.6584932723174647}
light 14037 {'light': 0.6584932723174647}
light 14075 {'light': 0.6584932723174647}
light 14079 {'light': 0.6584932723174647}
light 14092 {'light': 0.6584932723174647}
light 14098 {'light': 0.6584932723174647}
light 14100 {'light': 0.6584932723174647}
light 14102 {'light': 0.6584932723174647}
light 14118 {'light': 0.6584932723174647}
light 14121 {'light': 0.6584932723174647}
light 14138 {'light': 0.6584932723174647}
light 14141 {'light': 0.6584932723174647}
light 14143 {'light': 0.6584932723174647}
light 14144 {'light': 0.6584932723174647}
light 14151 {'light': 0.6584932723174647}
light 14154 {'light': 0.6584932723174647}
light 14155 {'light': 0.6584932723174647}
light 14171 {'light': 0.6584932723174647}
light 14187 {'light': 0.6584932723174647}
light 14194 {'light': 0.6584932723174647}
light 14200 {'light': 0.6584932723174647}
light 14208 {'light': 0.6584932723174647}
light 14227 {'light': 0.6584932723174647}
light 14229 {'light': 0.6584932723174647}
light 14237 {'light': 0.6584932723174647}
light 14238 {'light': 0.6584932723174647}
light 14240 {'light': 0.6584932723174647}
light 14242 {'light': 0.6584932723174647}
light 14260 {'light': 0.6584932723174647}
light 14263 {'light': 0.6584932723174647}
light 14273 {'light': 0.6584932723174647}
light 14278 {'light': 0.6584932723174647}
light 14281 {'light': 0.6584932723174647}
light 14285 {'light': 0.6584932723174647}
light 14314 {'light': 0.6584932723174647}
light 14333 {'light': 0.6584932723174647}
light 14343 {'light': 0.6584932723174647}
light 14362 {'light': 0.6584932723174647}
light 14386 {'light': 0.6584932723174647}
light 14392 {'light': 0.6584932723174647}
light 14394 {'light': 0.6584932723174647}
light 14395 {'light': 0.6584932723174647}
light 14403 {'light': 0.6584932723174647}
light 14408 {'light': 0.6584932723174647}
light 14418 {'light': 0.6584932723174647}
light 14425 {'light': 0.6584932723174647}
light 14437 {'light': 0.6584932723174647}
light 14479 {'light': 0.6584932723174647}
light 14494 {'light': 0.6584932723174647}
light 14530 {'light': 0.6584932723174647}
light 14531 {'light': 0.6584932723174647}
light 14542 {'light': 0.6584932723174647}
light 14544 {'light': 0.6584932723174647}
light 14546 {'light': 0.6584932723174647}
light 14556 {'light': 0.6584932723174647}
light 14557 {'light': 0.6584932723174647}
light 14558 {'light': 0.6584932723174647}
light 14561 {'light': 0.6584932723174647}
light 14562 {'light': 0.6584932723174647}
light 14564 {'light': 0.6584932723174647}
light 14565 {'light': 0.6584932723174647}
light 14566 {'light': 0.6584932723174647}
light 14569 {'light': 0.6584932723174647}
light 14571 {'light': 0.6584932723174647}
light 14577 {'light': 0.6584932723174647}
light 14601 {'light': 0.6584932723174647}
light 14630 {'light': 0.6584932723174647}
light 14654 {'light': 0.6584932723174647}
light 14657 {'light': 0.6584932723174647}
light 14674 {'light': 0.6584932723174647}
light 14697 {'light': 0.6584932723174647}
light 14775 {'light': 0.6584932723174647}
light 14829 {'light': 0.6584932723174647}
light 14853 {'light': 0.6584932723174647}
light 14863 {'light': 0.6584932723174647}
light 14867 {'light': 0.6584932723174647}
light 14889 {'light': 0.6584932723174647}
light 14895 {'light': 0.6584932723174647}
light 14900 {'light': 0.6584932723174647}
light 14912 {'light': 0.6584932723174647}
light 14914 {'light': 0.6584932723174647}
light 14929 {'light': 0.6584932723174647}
light 14945 {'light': 0.6584932723174647}
light 14967 {'light': 0.6584932723174647}
light 15033 {'light': 0.6584932723174647}
light 15044 {'light': 0.6584932723174647}
light 15090 {'light': 0.6584932723174647}
light 15095 {'light': 0.6584932723174647}
light 15109 {'light': 0.6584932723174647}
light 15134 {'light': 0.6584932723174647}
light 15220 {'light': 0.6584932723174647}
light 15235 {'light': 0.6584932723174647}
light 15243 {'light': 0.6584932723174647}
light 15263 {'light': 0.6584932723174647}
light 15269 {'light': 0.6584932723174647}
light 15275 {'light': 0.6584932723174647}
light 15305 {'light': 0.6584932723174647}
light 15311 {'light': 0.6584932723174647}
light 15319 {'light': 0.6584932723174647}
light 15339 {'light': 0.6584932723174647}
light 15341 {'light': 0.6584932723174647}
light 15351 {'light': 0.6584932723174647}
light 15361 {'light': 0.6584932723174647}
light 15377 {'light': 0.6584932723174647}
light 15380 {'light': 0.6584932723174647}
light 15447 {'light': 0.6584932723174647}
light 15464 {'light': 0.6584932723174647}
light 15487 {'light': 0.6584932723174647}
light 15492 {'light': 0.6584932723174647}
light 15497 {'light': 0.6584932723174647}
light 15510 {'light': 0.6584932723174647}
light 15514 {'light': 0.6584932723174647}
light 15520 {'light': 0.6584932723174647}
light 15536 {'light': 0.6584932723174647}
light 15578 {'light': 0.6584932723174647}
light 15598 {'light': 0.6584932723174647}
light 15703 {'light': 0.6584932723174647}
light 15722 {'light': 0.6584932723174647}
light 15784 {'light': 0.6584932723174647}
light 15789 {'light': 0.6584932723174647}
light 15815 {'light': 0.6584932723174647}
light 15828 {'light': 0.6584932723174647}
light 15842 {'light': 0.6584932723174647}
light 15903 {'light': 0.6584932723174647}
light 15910 {'light': 0.6584932723174647}
light 15913 {'light': 0.6584932723174647}
light 15919 {'light': 0.6584932723174647}
light 15923 {'light': 0.6584932723174647}
light 15935 {'light': 0.6584932723174647}
light 15969 {'light': 0.6584932723174647}
light 15977 {'light': 0.6584932723174647}
light 15984 {'light': 0.6584932723174647}
light 15992 {'light': 0.6584932723174647}
light 15994 {'light': 0.6584932723174647}
light 16023 {'light': 0.6584932723174647}
light 16061 {'light': 0.6584932723174647}
light 16073 {'light': 0.6584932723174647}
light 16080 {'light': 0.6584932723174647}
light 16081 {'light': 0.6584932723174647}
light 16097 {'light': 0.6584932723174647}
light 16121 {'light': 0.6584932723174647}
light 16133 {'light': 0.6584932723174647}
light 16134 {'light': 0.6584932723174647}
light 16167 {'light': 0.6584932723174647}
light 16179 {'light': 0.6584932723174647}
light 16186 {'light': 0.6584932723174647}
light 16202 {'light': 0.6584932723174647}
light 16300 {'light': 0.6584932723174647}
light 16353 {'light': 0.6584932723174647}
light 16517 {'light': 0.6584932723174647}
light 16529 {'light': 0.6584932723174647}
light 16558 {'light': 0.6584932723174647}
light 16561 {'light': 0.6584932723174647}
light 16645 {'light': 0.6584932723174647}
light 16655 {'light': 0.6584932723174647}
light 16696 {'light': 0.6584932723174647}
light 16721 {'light': 0.6584932723174647}
light 16724 {'light': 0.6584932723174647}
light 16726 {'light': 0.6584932723174647}
light 16736 {'light': 0.6584932723174647}
light 16737 {'light': 0.6584932723174647}
light 16743 {'light': 0.6584932723174647}
light 16846 {'light': 0.6584932723174647}
light 16880 {'light': 0.6584932723174647}
light 16890 {'light': 0.6584932723174647}
light 16929 {'light': 0.6584932723174647}
light 16958 {'light': 0.6584932723174647}
light 17003 {'light': 0.6584932723174647}
light 17004 {'light': 0.6584932723174647}
light 17080 {'light': 0.6584932723174647}
light 17091 {'light': 0.6584932723174647}
light 17096 {'light': 0.6584932723174647}
light 17099 {'light': 0.6584932723174647}
light 17109 {'light': 0.6584932723174647}
light 17167 {'light': 0.6584932723174647}
light 17210 {'light': 0.6584932723174647}
light 17251 {'light': 0.6584932723174647}
light 17294 {'light': 0.6584932723174647}
light 17320 {'light': 0.6584932723174647}
light 17361 {'light': 0.6584932723174647}
light 17365 {'light': 0.6584932723174647}
light 17367 {'light': 0.6584932723174647}
light 17378 {'light': 0.6584932723174647}
light 17402 {'light': 0.6584932723174647}
light 17416 {'light': 0.6584932723174647}
light 17479 {'light': 0.6584932723174647}
light 17502 {'light': 0.6584932723174647}
light 17503 {'light': 0.6584932723174647}
light 17508 {'light': 0.6584932723174647}
light 17525 {'light': 0.6584932723174647}
light 17641 {'light': 0.6584932723174647}
light 17788 {'light': 0.6584932723174647}
light 17839 {'light': 0.6584932723174647}
light 17898 {'light': 0.6584932723174647}
light 17908 {'light': 0.6584932723174647}
light 17909 {'light': 0.6584932723174647}
light 17955 {'light': 0.6584932723174647}
light 18006 {'light': 0.6584932723174647}
light 18039 {'light': 0.6584932723174647}
light 18045 {'light': 0.6584932723174647}
light 18113 {'light': 0.6584932723174647}
light 18152 {'light': 0.6584932723174647}
light 18212 {'light': 0.6584932723174647}
light 18233 {'light': 0.6584932723174647}
light 18253 {'light': 0.6584932723174647}
light 18258 {'light': 0.6584932723174647}
light 18263 {'light': 0.6584932723174647}
light 18281 {'light': 0.6584932723174647}
light 18292 {'light': 0.6584932723174647}
light 18328 {'light': 0.6584932723174647}
light 18344 {'light': 0.6584932723174647}
light 18353 {'light': 0.6584932723174647}
light 18354 {'light': 0.6584932723174647}
light 18358 {'light': 0.6584932723174647}
light 18374 {'light': 0.6584932723174647}
light 18377 {'light': 0.6584932723174647}
light 18381 {'light': 0.6584932723174647}
light 18382 {'light': 0.6584932723174647}
light 18385 {'light': 0.6584932723174647}
light 18396 {'light': 0.6584932723174647}
light 18399 {'light': 0.6584932723174647}
light 18419 {'light': 0.6584932723174647}
light 18426 {'light': 0.6584932723174647}
light 18436 {'light': 0.6584932723174647}
light 18455 {'light': 0.6584932723174647}
light 18468 {'light': 0.6584932723174647}
light 18473 {'light': 0.6584932723174647}
light 18481 {'light': 0.6584932723174647}
light 18483 {'light': 0.6584932723174647}
light 18497 {'light': 0.6584932723174647}
light 18517 {'light': 0.6584932723174647}
light 18528 {'light': 0.6584932723174647}
light 18529 {'light': 0.6584932723174647}
light 18532 {'light': 0.6584932723174647}
light 18575 {'light': 0.6584932723174647}
light 18579 {'light': 0.6584932723174647}
light 18582 {'light': 0.6584932723174647}
light 18600 {'light': 0.6584932723174647}
light 18614 {'light': 0.6584932723174647}
light 18620 {'light': 0.6584932723174647}
light 18622 {'light': 0.6584932723174647}
light 18633 {'light': 0.6584932723174647}
light 18637 {'light': 0.6584932723174647}
light 18647 {'light': 0.6584932723174647}
light 18672 {'light': 0.6584932723174647}
light 18708 {'light': 0.6584932723174647}
light 18730 {'light': 0.6584932723174647}
light 18759 {'light': 0.6584932723174647}
light 18770 {'light': 0.6584932723174647}
light 18783 {'light': 0.6584932723174647}
light 18802 {'light': 0.6584932723174647}
temperatur 162 {'temperatur': 0.5454545454545454}
temperatur 1606 {'temperatur': 0.5454545454545454}
temperatur 2769 {'temperatur': 0.5454545454545454}
temperatur 3278 {'temperatur': 0.5454545454545454}
temperatur 3316 {'temperatur': 0.5454545454545454}
temperatur 3350 {'temperatur': 0.5454545454545454}
temperatur 3357 {'temperatur': 0.5454545454545454}
temperatur 3444 {'temperatur': 0.5454545454545454}
temperatur 3479 {'temperatur': 0.5454545454545454}
temperatur 3503 {'temperatur': 0.5454545454545454}
temperatur 3662 {'temperatur': 0.5454545454545454}
temperatur 3669 {'temperatur': 0.5454545454545454}
temperatur 3685 {'temperatur': 0.5454545454545454}
temperatur 3694 {'temperatur': 0.5454545454545454}
temperatur 3711 {'temperatur': 0.5454545454545454}
temperatur 3714 {'temperatur': 0.5454545454545454}
temperatur 3783 {'temperatur': 0.5454545454545454}
temperatur 4468 {'temperatur': 0.5454545454545454}
temperatur 6706 {'temperatur': 0.5454545454545454}
temperatur 6811 {'temperatur': 0.5454545454545454}
temperatur 6817 {'temperatur': 0.5454545454545454}
temperatur 6984 {'temperatur': 0.5454545454545454}
temperatur 7009 {'temperatur': 0.5454545454545454}
temperatur 7365 {'temperatur': 0.5454545454545454}
temperatur 7434 {'temperatur': 0.5454545454545454}
temperatur 7590 {'temperatur': 0.5454545454545454}
temperatur 7751 {'temperatur': 0.5454545454545454}
temperatur 7820 {'temperatur': 0.5454545454545454}
temperatur 8149 {'temperatur': 0.5454545454545454}
temperatur 8390 {'temperatur': 0.5454545454545454}
temperatur 8800 {'temperatur': 0.5454545454545454}
temperatur 8980 {'temperatur': 0.5454545454545454}
temperatur 10876 {'temperatur': 0.5454545454545454}
temperatur 11647 {'temperatur': 0.5454545454545454}
temperatur 11658 {'temperatur': 0.5454545454545454}
temperatur 11688 {'temperatur': 0.5454545454545454}
temperatur 11708 {'temperatur': 0.5454545454545454}
temperatur 11715 {'temperatur': 0.5454545454545454}
temperatur 11802 {'temperatur': 0.5454545454545454}
temperatur 11828 {'temperatur': 0.5454545454545454}
temperatur 11855 {'temperatur': 0.5454545454545454}
temperatur 11886 {'temperatur': 0.5454545454545454}
temperatur 11894 {'temperatur': 0.5454545454545454}
temperatur 11917 {'temperatur': 0.5454545454545454}
temperatur 11920 {'temperatur': 0.5454545454545454}
temperatur 11932 {'temperatur': 0.5454545454545454}
temperatur 11953 {'temperatur': 0.5454545454545454}
temperatur 11966 {'temperatur': 0.5454545454545454}
temperatur 11977 {'temperatur': 0.5454545454545454}
temperatur 12042 {'temperatur': 0.5454545454545454}
temperatur 12169 {'temperatur': 0.5454545454545454}
temperatur 12307 {'temperatur': 0.5454545454545454}
temperatur 12318 {'temperatur': 0.5867768595041322}
temperatur 12324 {'temperatur': 0.5454545454545454}
temperatur 12328 {'temperatur': 0.5454545454545454}
temperatur 12342 {'temperatur': 0.5454545454545454}
temperatur 12344 {'temperatur': 0.5454545454545454}
temperatur 12366 {'temperatur': 0.5454545454545454}
temperatur 12400 {'temperatur': 0.5454545454545454}
temperatur 12441 {'temperatur': 0.5454545454545454}
temperatur 12497 {'temperatur': 0.5454545454545454}
temperatur 12587 {'temperatur': 0.5454545454545454}
temperatur 12600 {'temperatur': 0.5454545454545454}
temperatur 12845 {'temperatur': 0.5454545454545454}
temperatur 12850 {'temperatur': 0.5454545454545454}
temperatur 12871 {'temperatur': 0.5454545454545454}
temperatur 12899 {'temperatur': 0.5454545454545454}
temperatur 13000 {'temperatur': 0.5454545454545454}
temperatur 13063 {'temperatur': 0.5454545454545454}
temperatur 13080 {'temperatur': 0.5454545454545454}
temperatur 13083 {'temperatur': 0.5454545454545454}
temperatur 13325 {'temperatur': 0.5454545454545454}
temperatur 13327 {'temperatur': 0.5454545454545454}
temperatur 13465 {'temperatur': 0.5454545454545454}
temperatur 13473 {'temperatur': 0.5454545454545454}
temperatur 13499 {'temperatur': 0.5454545454545454}
temperatur 13581 {'temperatur': 0.5454545454545454}
temperatur 13592 {'temperatur': 0.5454545454545454}
temperatur 13674 {'temperatur': 0.5454545454545454}
temperatur 13706 {'temperatur': 0.5454545454545454}
temperatur 13722 {'temperatur': 0.5454545454545454}
temperatur 13777 {'temperatur': 0.5454545454545454}
temperatur 13883 {'temperatur': 0.5454545454545454}
temperatur 13991 {'temperatur': 0.5454545454545454}
temperatur 14032 {'temperatur': 0.5454545454545454}
temperatur 14093 {'temperatur': 0.5454545454545454}
temperatur 14178 {'temperatur': 0.5454545454545454}
temperatur 14187 {'temperatur': 0.5454545454545454}
temperatur 14218 {'temperatur': 0.5454545454545454}
temperatur 14221 {'temperatur': 0.5454545454545454}
temperatur 14222 {'temperatur': 0.5454545454545454}
temperatur 14240 {'temperatur': 0.5454545454545454}
temperatur 14242 {'temperatur': 0.5454545454545454}
temperatur 14259 {'temperatur': 0.5454545454545454}
temperatur 14263 {'temperatur': 0.5454545454545454}
temperatur 14273 {'temperatur': 0.5454545454545454}
temperatur 14274 {'temperatur': 0.5454545454545454}
temperatur 14301 {'temperatur': 0.5454545454545454}
temperatur 14302 {'temperatur': 0.5454545454545454}
temperatur 14303 {'temperatur': 0.5454545454545454}
temperatur 14331 {'temperatur': 0.5454545454545454}
temperatur 14340 {'temperatur': 0.5454545454545454}
temperatur 14343 {'temperatur': 0.5454545454545454}
temperatur 14354 {'temperatur': 0.5454545454545454}
temperatur 14359 {'temperatur': 0.5454545454545454}
temperatur 14362 {'temperatur': 0.5454545454545454}
temperatur 14394 {'temperatur': 0.5454545454545454}
temperatur 14447 {'temperatur': 0.5454545454545454}
temperatur 14455 {'temperatur': 0.5454545454545454}
temperatur 14537 {'temperatur': 0.5454545454545454}
temperatur 14722 {'temperatur': 0.5454545454545454}
temperatur 16003 {'temperatur': 0.5454545454545454}
temperatur 16082 {'temperatur': 0.5454545454545454}
temperatur 16248 {'temperatur': 0.5454545454545454}
temperatur 16687 {'temperatur': 0.5454545454545454}
temperatur 17808 {'temperatur': 0.5454545454545454}
temperatur 17898 {'temperatur': 0.5454545454545454}
temperatur 18006 {'temperatur': 0.5454545454545454}
temperatur 18117 {'temperatur': 0.5454545454545454}
temperatur 18125 {'temperatur': 0.5454545454545454}
temperatur 18423 {'temperatur': 0.5454545454545454}
temperatur 18749 {'temperatur': 0.5454545454545454}
temperatur 18802 {'temperatur': 0.5454545454545454}
temperatur 18811 {'temperatur': 0.5454545454545454}
temperatur 989 {'temperatur': 0.5454545454545454}
temperatur 1013 {'temperatur': 0.5454545454545454}
temperatur 1201 {'temperatur': 0.5454545454545454}
temperatur 1314 {'temperatur': 0.5454545454545454}
temperatur 1451 {'temperatur': 0.5454545454545454}
temperatur 1463 {'temperatur': 0.5454545454545454}
temperatur 1498 {'temperatur': 0.5454545454545454}
temperatur 2858 {'temperatur': 0.5454545454545454}
temperatur 3164 {'temperatur': 0.5454545454545454}
temperatur 3274 {'temperatur': 0.5454545454545454}
temperatur 4328 {'temperatur': 0.5454545454545454}
temperatur 5614 {'temperatur': 0.5454545454545454}
temperatur 5616 {'temperatur': 0.5454545454545454}
temperatur 5642 {'temperatur': 0.5454545454545454}
temperatur 5691 {'temperatur': 0.5454545454545454}
temperatur 6237 {'temperatur': 0.5454545454545454}
temperatur 6328 {'temperatur': 0.5454545454545454}
temperatur 6920 {'temperatur': 0.5454545454545454}
temperatur 7006 {'temperatur': 0.5454545454545454}
temperatur 7245 {'temperatur': 0.5454545454545454}
temperatur 7258 {'temperatur': 0.5454545454545454}
temperatur 8707 {'temperatur': 0.5454545454545454}
temperatur 9652 {'temperatur': 0.5454545454545454}
temperatur 10112 {'temperatur': 0.5454545454545454}
temperatur 10117 {'temperatur': 0.5454545454545454}
temperatur 10133 {'temperatur': 0.5454545454545454}
temperatur 10516 {'temperatur': 0.5454545454545454}
temperatur 10523 {'temperatur': 0.5454545454545454}
temperatur 10538 {'temperatur': 0.5454545454545454}
temperatur 10542 {'temperatur': 0.5454545454545454}
temperatur 11086 {'temperatur': 0.5454545454545454}
temperatur 11431 {'temperatur': 0.5454545454545454}
temperatur 11677 {'temperatur': 0.5454545454545454}
temperatur 12173 {'temperatur': 0.5454545454545454}
temperatur 12317 {'temperatur': 0.5454545454545454}
temperatur 12319 {'temperatur': 0.5454545454545454}
temperatur 12502 {'temperatur': 0.5454545454545454}
temperatur 12723 {'temperatur': 0.5454545454545454}
temperatur 12730 {'temperatur': 0.5454545454545454}
temperatur 12750 {'temperatur': 0.5454545454545454}
temperatur 13723 {'temperatur': 0.5454545454545454}
temperatur 14439 {'temperatur': 0.5454545454545454}
temperatur 14885 {'temperatur': 0.5454545454545454}
temperatur 15176 {'temperatur': 0.5454545454545454}
temperatur 15612 {'temperatur': 0.5454545454545454}
temperatur 16375 {'temperatur': 0.5454545454545454}
temperatur 16626 {'temperatur': 0.5454545454545454}
temperatur 16788 {'temperatur': 0.5454545454545454}
temperatur 17142 {'temperatur': 0.5454545454545454}
temperatur 17503 {'temperatur': 0.5454545454545454}
sabana 989 {'sabana': 0.5}
sabana 1013 {'sabana': 0.5}
sabana 1201 {'sabana': 0.5}
sabana 1314 {'sabana': 0.5}
sabana 1451 {'sabana': 0.5}
sabana 1463 {'sabana': 0.5}
sabana 1498 {'sabana': 0.5}
sabana 2858 {'sabana': 0.5}
sabana 3164 {'sabana': 0.5}
sabana 3274 {'sabana': 0.5}
sabana 4328 {'sabana': 0.5}
sabana 5614 {'sabana': 0.5}
sabana 5616 {'sabana': 0.5}
sabana 5642 {'sabana': 0.5}
sabana 5691 {'sabana': 0.5}
sabana 6237 {'sabana': 0.5}
sabana 6328 {'sabana': 0.5}
sabana 6920 {'sabana': 0.5}
sabana 7006 {'sabana': 0.5}
sabana 7245 {'sabana': 0.5}
sabana 7258 {'sabana': 0.5}
sabana 8707 {'sabana': 0.5}
sabana 9652 {'sabana': 0.5}
sabana 10112 {'sabana': 0.5}
sabana 10117 {'sabana': 0.5}
sabana 10133 {'sabana': 0.5}
sabana 10516 {'sabana': 0.5}
sabana 10523 {'sabana': 0.5}
sabana 10538 {'sabana': 0.5}
sabana 10542 {'sabana': 0.5}
sabana 11086 {'sabana': 0.5}
sabana 11431 {'sabana': 0.5}
sabana 11677 {'sabana': 0.5}
sabana 12173 {'sabana': 0.5}
sabana 12317 {'sabana': 0.5}
sabana 12318 {'sabana': 0.5}
sabana 12319 {'sabana': 0.5}
sabana 12502 {'sabana': 0.5}
sabana 12723 {'sabana': 0.5}
sabana 12730 {'sabana': 0.5}
sabana 12750 {'sabana': 0.5}
sabana 13723 {'sabana': 0.5}
sabana 14439 {'sabana': 0.5}
sabana 14885 {'sabana': 0.5}
sabana 15176 {'sabana': 0.5}
sabana 15612 {'sabana': 0.5}
sabana 16375 {'sabana': 0.5}
sabana 16626 {'sabana': 0.5}
sabana 16788 {'sabana': 0.5}
sabana 17142 {'sabana': 0.5}
sabana 17503 {'sabana': 0.5}
query document not relevance
stress 12 {'stress': 0.11807817589576547}
stress 28 {'stress': 0.11807817589576547}
stress 29 {'stress': 0.11807817589576547}
stress 30 {'stress': 0.11807817589576547}
stress 50 {'stress': 0.11807817589576547}
stress 65 {'stress': 0.11807817589576547}
stress 74 {'stress': 0.11807817589576547}
life 74 {'life': 0.009771986970684038}
stress 94 {'stress': 0.11807817589576547}
stress 98 {'stress': 0.11807817589576547}
stress 99 {'stress': 0.11807817589576547}
life 99 {'life': 0.009771986970684038}
stress 129 {'stress': 0.11807817589576547}
stress 131 {'stress': 0.11807817589576547}
stress 133 {'stress': 0.11807817589576547}
stress 161 {'stress': 0.11807817589576547}
stress 162 {'stress': 0.11807817589576547}
stress 182 {'stress': 0.11807817589576547}
stress 187 {'stress': 0.11807817589576547}
stress 190 {'stress': 0.11807817589576547}
stress 248 {'stress': 0.11807817589576547}
stress 250 {'stress': 0.11807817589576547}
stress 322 {'stress': 0.11807817589576547}
stress 341 {'stress': 0.11807817589576547}
stress 384 {'stress': 0.11807817589576547}
stress 390 {'stress': 0.11807817589576547}
stress 393 {'stress': 0.11807817589576547}
stress 405 {'stress': 0.11807817589576547}
stress 408 {'stress': 0.11807817589576547}
stress 411 {'stress': 0.11807817589576547}
stress 416 {'stress': 0.11807817589576547}
stress 487 {'stress': 0.11807817589576547}
stress 551 {'stress': 0.11807817589576547}
stress 568 {'stress': 0.11807817589576547}
stress 580 {'stress': 0.11807817589576547}
stress 584 {'stress': 0.11807817589576547}
stress 597 {'stress': 0.11807817589576547}
life 601 {'life': 0.009771986970684038}
stress 626 {'stress': 0.11807817589576547}
life 626 {'life': 0.009771986970684038}
stress 644 {'stress': 0.11807817589576547}
life 644 {'life': 0.009771986970684038}
stress 705 {'stress': 0.11807817589576547}
stress 707 {'stress': 0.11807817589576547}
life 708 {'life': 0.009771986970684038}
life 709 {'life': 0.009771986970684038}
stress 710 {'stress': 0.11807817589576547}
stress 711 {'stress': 0.11807817589576547}
stress 712 {'stress': 0.11807817589576547}
life 712 {'life': 0.009771986970684038}
stress 714 {'stress': 0.11807817589576547}
stress 715 {'stress': 0.11807817589576547}
stress 717 {'stress': 0.11807817589576547}
stress 718 {'stress': 0.11807817589576547}
stress 719 {'stress': 0.11807817589576547}
stress 721 {'stress': 0.11807817589576547}
stress 725 {'stress': 0.11807817589576547}
stress 726 {'stress': 0.11807817589576547}
stress 727 {'stress': 0.11807817589576547}
stress 745 {'stress': 0.11807817589576547}
stress 747 {'stress': 0.11807817589576547}
stress 749 {'stress': 0.11807817589576547}
stress 750 {'stress': 0.11807817589576547}
stress 751 {'stress': 0.11807817589576547}
life 752 {'life': 0.009771986970684038}
stress 753 {'stress': 0.11807817589576547}
stress 801 {'stress': 0.11807817589576547}
stress 802 {'stress': 0.11807817589576547}
stress 803 {'stress': 0.11807817589576547}
stress 804 {'stress': 0.11807817589576547}
stress 806 {'stress': 0.11807817589576547}
stress 809 {'stress': 0.11807817589576547}
stress 810 {'stress': 0.11807817589576547}
stress 812 {'stress': 0.11807817589576547}
stress 814 {'stress': 0.11807817589576547}
stress 817 {'stress': 0.11807817589576547}
stress 820 {'stress': 0.11807817589576547}
stress 821 {'stress': 0.11807817589576547}
stress 823 {'stress': 0.11807817589576547}
stress 824 {'stress': 0.11807817589576547}
stress 825 {'stress': 0.11807817589576547}
stress 827 {'stress': 0.11807817589576547}
stress 834 {'stress': 0.11807817589576547}
stress 835 {'stress': 0.11807817589576547}
stress 837 {'stress': 0.11807817589576547}
stress 841 {'stress': 0.11807817589576547}
stress 842 {'stress': 0.11807817589576547}
life 847 {'life': 0.009771986970684038}
stress 849 {'stress': 0.11807817589576547}
stress 851 {'stress': 0.11807817589576547}
stress 852 {'stress': 0.11807817589576547}
stress 853 {'stress': 0.11807817589576547}
stress 856 {'stress': 0.11807817589576547}
stress 859 {'stress': 0.11807817589576547}
stress 863 {'stress': 0.11807817589576547}
life 863 {'life': 0.009771986970684038}
life 864 {'life': 0.009771986970684038}
stress 865 {'stress': 0.11807817589576547}
stress 867 {'stress': 0.11807817589576547}
stress 869 {'stress': 0.11807817589576547}
stress 870 {'stress': 0.11807817589576547}
stress 871 {'stress': 0.11807817589576547}
stress 872 {'stress': 0.11807817589576547}
stress 879 {'stress': 0.11807817589576547}
stress 891 {'stress': 0.11807817589576547}
life 891 {'life': 0.009771986970684038}
stress 910 {'stress': 0.11807817589576547}
stress 912 {'stress': 0.11807817589576547}
stress 917 {'stress': 0.11807817589576547}
stress 920 {'stress': 0.11807817589576547}
stress 935 {'stress': 0.11807817589576547}
stress 936 {'stress': 0.11807817589576547}
stress 993 {'stress': 0.11807817589576547}
stress 996 {'stress': 0.11807817589576547}
stress 999 {'stress': 0.11807817589576547}
stress 1000 {'stress': 0.11807817589576547}
stress 1006 {'stress': 0.11807817589576547}
stress 1008 {'stress': 0.11807817589576547}
stress 1012 {'stress': 0.11807817589576547}
stress 1015 {'stress': 0.11807817589576547}
stress 1017 {'stress': 0.11807817589576547}
stress 1018 {'stress': 0.11807817589576547}
stress 1019 {'stress': 0.11807817589576547}
stress 1020 {'stress': 0.11807817589576547}
stress 1022 {'stress': 0.11807817589576547}
stress 1023 {'stress': 0.11807817589576547}
stress 1024 {'stress': 0.11807817589576547}
stress 1025 {'stress': 0.11807817589576547}
stress 1027 {'stress': 0.11807817589576547}
stress 1034 {'stress': 0.11807817589576547}
stress 1036 {'stress': 0.11807817589576547}
stress 1039 {'stress': 0.11807817589576547}
stress 1040 {'stress': 0.11807817589576547}
stress 1049 {'stress': 0.11807817589576547}
stress 1052 {'stress': 0.11807817589576547}
stress 1097 {'stress': 0.11807817589576547}
stress 1104 {'stress': 0.11807817589576547}
stress 1108 {'stress': 0.11807817589576547}
stress 1109 {'stress': 0.11807817589576547}
stress 1115 {'stress': 0.11807817589576547}
stress 1117 {'stress': 0.11807817589576547}
stress 1127 {'stress': 0.11807817589576547}
stress 1152 {'stress': 0.11807817589576547}
stress 1153 {'stress': 0.11807817589576547}
stress 1155 {'stress': 0.11807817589576547}
stress 1157 {'stress': 0.11807817589576547}
stress 1158 {'stress': 0.11807817589576547}
stress 1206 {'stress': 0.11807817589576547}
stress 1223 {'stress': 0.11807817589576547}
stress 1254 {'stress': 0.11807817589576547}
stress 1260 {'stress': 0.11807817589576547}
stress 1301 {'stress': 0.11807817589576547}
stress 1341 {'stress': 0.11807817589576547}
stress 1359 {'stress': 0.11807817589576547}
stress 1366 {'stress': 0.11807817589576547}
stress 1376 {'stress': 0.11807817589576547}
stress 1377 {'stress': 0.11807817589576547}
stress 1378 {'stress': 0.11807817589576547}
stress 1379 {'stress': 0.11807817589576547}
stress 601 {'stress': 0.11889250814332247}
stress 708 {'stress': 0.11889250814332247}
stress 709 {'stress': 0.11889250814332247}
stress 752 {'stress': 0.11889250814332247}
stress 847 {'stress': 0.11889250814332247}
stress 864 {'stress': 0.11889250814332247}
life 12 {'life': 0.010586319218241042}
life 28 {'life': 0.010586319218241042}
life 29 {'life': 0.010586319218241042}
life 30 {'life': 0.010586319218241042}
life 50 {'life': 0.010586319218241042}
life 65 {'life': 0.010586319218241042}
life 94 {'life': 0.010586319218241042}
life 98 {'life': 0.010586319218241042}
life 129 {'life': 0.010586319218241042}
life 131 {'life': 0.010586319218241042}
life 133 {'life': 0.010586319218241042}
life 161 {'life': 0.010586319218241042}
life 162 {'life': 0.010586319218241042}
life 182 {'life': 0.010586319218241042}
life 187 {'life': 0.010586319218241042}
life 190 {'life': 0.010586319218241042}
life 248 {'life': 0.010586319218241042}
life 250 {'life': 0.010586319218241042}
life 322 {'life': 0.010586319218241042}
life 341 {'life': 0.010586319218241042}
life 384 {'life': 0.010586319218241042}
life 390 {'life': 0.010586319218241042}
life 393 {'life': 0.010586319218241042}
life 405 {'life': 0.010586319218241042}
life 408 {'life': 0.010586319218241042}
life 411 {'life': 0.010586319218241042}
life 416 {'life': 0.010586319218241042}
life 487 {'life': 0.010586319218241042}
life 551 {'life': 0.010586319218241042}
life 568 {'life': 0.010586319218241042}
life 580 {'life': 0.010586319218241042}
life 584 {'life': 0.010586319218241042}
life 597 {'life': 0.010586319218241042}
life 705 {'life': 0.010586319218241042}
life 707 {'life': 0.010586319218241042}
life 710 {'life': 0.010586319218241042}
life 711 {'life': 0.010586319218241042}
life 714 {'life': 0.010586319218241042}
life 715 {'life': 0.010586319218241042}
life 717 {'life': 0.010586319218241042}
life 718 {'life': 0.010586319218241042}
life 719 {'life': 0.010586319218241042}
life 721 {'life': 0.010586319218241042}
life 725 {'life': 0.010586319218241042}
life 726 {'life': 0.010586319218241042}
life 727 {'life': 0.010586319218241042}
life 745 {'life': 0.010586319218241042}
life 747 {'life': 0.010586319218241042}
life 749 {'life': 0.010586319218241042}
life 750 {'life': 0.010586319218241042}
life 751 {'life': 0.010586319218241042}
life 753 {'life': 0.010586319218241042}
life 801 {'life': 0.010586319218241042}
life 802 {'life': 0.010586319218241042}
life 803 {'life': 0.010586319218241042}
life 804 {'life': 0.010586319218241042}
life 806 {'life': 0.010586319218241042}
life 809 {'life': 0.010586319218241042}
life 810 {'life': 0.010586319218241042}
life 812 {'life': 0.010586319218241042}
life 814 {'life': 0.010586319218241042}
life 817 {'life': 0.010586319218241042}
life 820 {'life': 0.010586319218241042}
life 821 {'life': 0.010586319218241042}
life 823 {'life': 0.010586319218241042}
life 824 {'life': 0.010586319218241042}
life 825 {'life': 0.010586319218241042}
life 827 {'life': 0.010586319218241042}
life 834 {'life': 0.010586319218241042}
life 835 {'life': 0.010586319218241042}
life 837 {'life': 0.010586319218241042}
life 841 {'life': 0.010586319218241042}
life 842 {'life': 0.010586319218241042}
life 849 {'life': 0.010586319218241042}
life 851 {'life': 0.010586319218241042}
life 852 {'life': 0.010586319218241042}
life 853 {'life': 0.010586319218241042}
life 856 {'life': 0.010586319218241042}
life 859 {'life': 0.010586319218241042}
life 865 {'life': 0.010586319218241042}
life 867 {'life': 0.010586319218241042}
life 869 {'life': 0.010586319218241042}
life 870 {'life': 0.010586319218241042}
life 871 {'life': 0.010586319218241042}
life 872 {'life': 0.010586319218241042}
life 879 {'life': 0.010586319218241042}
life 910 {'life': 0.010586319218241042}
life 912 {'life': 0.010586319218241042}
life 917 {'life': 0.010586319218241042}
life 920 {'life': 0.010586319218241042}
life 935 {'life': 0.010586319218241042}
life 936 {'life': 0.010586319218241042}
life 993 {'life': 0.010586319218241042}
life 996 {'life': 0.010586319218241042}
life 999 {'life': 0.010586319218241042}
life 1000 {'life': 0.010586319218241042}
life 1006 {'life': 0.010586319218241042}
life 1008 {'life': 0.010586319218241042}
life 1012 {'life': 0.010586319218241042}
life 1015 {'life': 0.010586319218241042}
life 1017 {'life': 0.010586319218241042}
life 1018 {'life': 0.010586319218241042}
life 1019 {'life': 0.010586319218241042}
life 1020 {'life': 0.010586319218241042}
life 1022 {'life': 0.010586319218241042}
life 1023 {'life': 0.010586319218241042}
life 1024 {'life': 0.010586319218241042}
life 1025 {'life': 0.010586319218241042}
life 1027 {'life': 0.010586319218241042}
life 1034 {'life': 0.010586319218241042}
life 1036 {'life': 0.010586319218241042}
life 1039 {'life': 0.010586319218241042}
life 1040 {'life': 0.010586319218241042}
life 1049 {'life': 0.010586319218241042}
life 1052 {'life': 0.010586319218241042}
life 1097 {'life': 0.010586319218241042}
life 1104 {'life': 0.010586319218241042}
life 1108 {'life': 0.010586319218241042}
life 1109 {'life': 0.010586319218241042}
life 1115 {'life': 0.010586319218241042}
life 1117 {'life': 0.010586319218241042}
life 1127 {'life': 0.010586319218241042}
life 1152 {'life': 0.010586319218241042}
life 1153 {'life': 0.010586319218241042}
life 1155 {'life': 0.010586319218241042}
life 1157 {'life': 0.010586319218241042}
life 1158 {'life': 0.010586319218241042}
life 1206 {'life': 0.010586319218241042}
life 1223 {'life': 0.010586319218241042}
life 1254 {'life': 0.010586319218241042}
life 1260 {'life': 0.010586319218241042}
life 1301 {'life': 0.010586319218241042}
life 1341 {'life': 0.010586319218241042}
life 1359 {'life': 0.010586319218241042}
life 1366 {'life': 0.010586319218241042}
life 1376 {'life': 0.010586319218241042}
life 1377 {'life': 0.010586319218241042}
life 1378 {'life': 0.010586319218241042}
life 1379 {'life': 0.010586319218241042}
problem 0 {'problem': 0.2318840579710145}
problem 1 {'problem': 0.2318840579710145}
problem 3 {'problem': 0.2318840579710145}
problem 5 {'problem': 0.2318840579710145}
problem 10 {'problem': 0.2318840579710145}
problem 11 {'problem': 0.2318840579710145}
problem 12 {'problem': 0.2585089141004862}
problem 13 {'problem': 0.2318840579710145}
problem 14 {'problem': 0.2318840579710145}
problem 25 {'problem': 0.2318840579710145}
problem 27 {'problem': 0.2318840579710145}
problem 32 {'problem': 0.2318840579710145}
problem 33 {'problem': 0.2318840579710145}
problem 34 {'problem': 0.2318840579710145}
problem 43 {'problem': 0.2318840579710145}
problem 45 {'problem': 0.2318840579710145}
problem 50 {'problem': 0.2585089141004862}
problem 59 {'problem': 0.2318840579710145}
problem 71 {'problem': 0.2318840579710145}
problem 72 {'problem': 0.2318840579710145}
problem 74 {'problem': 0.2585089141004862}
problem 80 {'problem': 0.2318840579710145}
problem 81 {'problem': 0.2318840579710145}
problem 86 {'problem': 0.2318840579710145}
problem 91 {'problem': 0.2318840579710145}
problem 92 {'problem': 0.2318840579710145}
problem 96 {'problem': 0.2318840579710145}
problem 97 {'problem': 0.2318840579710145}
problem 98 {'problem': 0.2585089141004862}
problem 106 {'problem': 0.2318840579710145}
problem 108 {'problem': 0.2318840579710145}
problem 113 {'problem': 0.2318840579710145}
problem 128 {'problem': 0.2318840579710145}
problem 140 {'problem': 0.2318840579710145}
problem 142 {'problem': 0.2318840579710145}
problem 143 {'problem': 0.2318840579710145}
problem 147 {'problem': 0.2318840579710145}
problem 152 {'problem': 0.2318840579710145}
problem 154 {'problem': 0.2318840579710145}
problem 156 {'problem': 0.2318840579710145}
problem 157 {'problem': 0.2318840579710145}
problem 160 {'problem': 0.2318840579710145}
problem 168 {'problem': 0.2318840579710145}
problem 177 {'problem': 0.2318840579710145}
problem 181 {'problem': 0.2318840579710145}
problem 196 {'problem': 0.2318840579710145}
problem 201 {'problem': 0.2318840579710145}
problem 239 {'problem': 0.2318840579710145}
problem 255 {'problem': 0.2318840579710145}
problem 257 {'problem': 0.2318840579710145}
problem 259 {'problem': 0.2318840579710145}
problem 267 {'problem': 0.2318840579710145}
problem 274 {'problem': 0.2318840579710145}
problem 277 {'problem': 0.2318840579710145}
problem 278 {'problem': 0.2318840579710145}
problem 286 {'problem': 0.2318840579710145}
problem 290 {'problem': 0.2318840579710145}
problem 293 {'problem': 0.2318840579710145}
problem 297 {'problem': 0.2318840579710145}
problem 298 {'problem': 0.2318840579710145}
problem 313 {'problem': 0.2318840579710145}
problem 314 {'problem': 0.2318840579710145}
problem 315 {'problem': 0.2318840579710145}
problem 316 {'problem': 0.2318840579710145}
problem 322 {'problem': 0.2585089141004862}
problem 329 {'problem': 0.2318840579710145}
problem 335 {'problem': 0.2318840579710145}
problem 337 {'problem': 0.2318840579710145}
problem 340 {'problem': 0.2318840579710145}
problem 342 {'problem': 0.2318840579710145}
problem 343 {'problem': 0.2318840579710145}
problem 344 {'problem': 0.2318840579710145}
problem 355 {'problem': 0.2318840579710145}
problem 356 {'problem': 0.2318840579710145}
problem 357 {'problem': 0.2318840579710145}
problem 358 {'problem': 0.2318840579710145}
problem 359 {'problem': 0.2318840579710145}
problem 361 {'problem': 0.2318840579710145}
problem 362 {'problem': 0.2318840579710145}
problem 367 {'problem': 0.2318840579710145}
problem 368 {'problem': 0.2318840579710145}
problem 372 {'problem': 0.2318840579710145}
problem 378 {'problem': 0.2318840579710145}
problem 381 {'problem': 0.2318840579710145}
problem 382 {'problem': 0.2318840579710145}
problem 383 {'problem': 0.2318840579710145}
problem 384 {'problem': 0.2585089141004862}
problem 388 {'problem': 0.2318840579710145}
problem 391 {'problem': 0.2318840579710145}
problem 394 {'problem': 0.2318840579710145}
problem 397 {'problem': 0.2318840579710145}
problem 399 {'problem': 0.2318840579710145}
problem 402 {'problem': 0.2318840579710145}
problem 403 {'problem': 0.2318840579710145}
problem 406 {'problem': 0.2318840579710145}
problem 409 {'problem': 0.2318840579710145}
problem 414 {'problem': 0.2318840579710145}
problem 416 {'problem': 0.2585089141004862}
problem 417 {'problem': 0.2318840579710145}
problem 421 {'problem': 0.2318840579710145}
problem 424 {'problem': 0.2318840579710145}
problem 433 {'problem': 0.2318840579710145}
problem 436 {'problem': 0.2318840579710145}
problem 437 {'problem': 0.2318840579710145}
problem 440 {'problem': 0.2318840579710145}
problem 441 {'problem': 0.2318840579710145}
problem 443 {'problem': 0.2318840579710145}
problem 447 {'problem': 0.2318840579710145}
problem 450 {'problem': 0.2318840579710145}
problem 454 {'problem': 0.2318840579710145}
problem 463 {'problem': 0.2318840579710145}
problem 466 {'problem': 0.2318840579710145}
problem 470 {'problem': 0.2318840579710145}
problem 476 {'problem': 0.2318840579710145}
problem 489 {'problem': 0.2318840579710145}
problem 494 {'problem': 0.2318840579710145}
problem 508 {'problem': 0.2318840579710145}
problem 517 {'problem': 0.2318840579710145}
problem 522 {'problem': 0.2318840579710145}
problem 523 {'problem': 0.2318840579710145}
problem 527 {'problem': 0.2318840579710145}
problem 530 {'problem': 0.2318840579710145}
problem 532 {'problem': 0.2318840579710145}
problem 540 {'problem': 0.2318840579710145}
problem 541 {'problem': 0.2318840579710145}
problem 543 {'problem': 0.2318840579710145}
problem 549 {'problem': 0.2318840579710145}
problem 558 {'problem': 0.2318840579710145}
problem 560 {'problem': 0.2318840579710145}
problem 562 {'problem': 0.2318840579710145}
problem 563 {'problem': 0.2318840579710145}
problem 564 {'problem': 0.2318840579710145}
problem 565 {'problem': 0.2318840579710145}
problem 566 {'problem': 0.2318840579710145}
problem 567 {'problem': 0.2318840579710145}
problem 571 {'problem': 0.2318840579710145}
problem 572 {'problem': 0.2318840579710145}
problem 573 {'problem': 0.2318840579710145}
problem 575 {'problem': 0.2318840579710145}
problem 576 {'problem': 0.2318840579710145}
problem 578 {'problem': 0.2318840579710145}
problem 587 {'problem': 0.2318840579710145}
problem 589 {'problem': 0.2318840579710145}
problem 593 {'problem': 0.2318840579710145}
problem 611 {'problem': 0.2318840579710145}
problem 613 {'problem': 0.2318840579710145}
problem 626 {'problem': 0.2585089141004862}
problem 627 {'problem': 0.2318840579710145}
problem 630 {'problem': 0.2318840579710145}
problem 634 {'problem': 0.2318840579710145}
problem 635 {'problem': 0.2318840579710145}
problem 636 {'problem': 0.2318840579710145}
problem 642 {'problem': 0.2318840579710145}
problem 644 {'problem': 0.2585089141004862}
problem 648 {'problem': 0.2318840579710145}
problem 651 {'problem': 0.2318840579710145}
problem 653 {'problem': 0.2318840579710145}
problem 658 {'problem': 0.2318840579710145}
problem 663 {'problem': 0.2318840579710145}
problem 670 {'problem': 0.2318840579710145}
problem 680 {'problem': 0.2318840579710145}
problem 685 {'problem': 0.2318840579710145}
problem 691 {'problem': 0.2318840579710145}
problem 692 {'problem': 0.2318840579710145}
problem 700 {'problem': 0.2318840579710145}
problem 709 {'problem': 0.2318840579710145}
problem 711 {'problem': 0.2585089141004862}
problem 715 {'problem': 0.2585089141004862}
problem 716 {'problem': 0.2318840579710145}
problem 717 {'problem': 0.2585089141004862}
problem 718 {'problem': 0.2585089141004862}
problem 719 {'problem': 0.2585089141004862}
problem 721 {'problem': 0.2585089141004862}
problem 723 {'problem': 0.2318840579710145}
problem 725 {'problem': 0.2585089141004862}
problem 730 {'problem': 0.2318840579710145}
problem 731 {'problem': 0.2318840579710145}
problem 741 {'problem': 0.2318840579710145}
problem 753 {'problem': 0.2585089141004862}
problem 761 {'problem': 0.2318840579710145}
problem 762 {'problem': 0.2318840579710145}
problem 766 {'problem': 0.2318840579710145}
problem 769 {'problem': 0.2318840579710145}
problem 770 {'problem': 0.2318840579710145}
problem 771 {'problem': 0.2318840579710145}
problem 776 {'problem': 0.2318840579710145}
problem 782 {'problem': 0.2318840579710145}
problem 794 {'problem': 0.2318840579710145}
problem 802 {'problem': 0.2585089141004862}
problem 810 {'problem': 0.2585089141004862}
problem 811 {'problem': 0.2318840579710145}
problem 812 {'problem': 0.2585089141004862}
problem 815 {'problem': 0.2318840579710145}
problem 817 {'problem': 0.2585089141004862}
problem 819 {'problem': 0.2318840579710145}
problem 821 {'problem': 0.2585089141004862}
problem 824 {'problem': 0.2585089141004862}
problem 827 {'problem': 0.2585089141004862}
problem 837 {'problem': 0.2585089141004862}
problem 838 {'problem': 0.2318840579710145}
problem 846 {'problem': 0.2318840579710145}
problem 852 {'problem': 0.2585089141004862}
problem 862 {'problem': 0.2318840579710145}
problem 868 {'problem': 0.2318840579710145}
problem 869 {'problem': 0.2585089141004862}
problem 871 {'problem': 0.2585089141004862}
problem 874 {'problem': 0.2318840579710145}
problem 878 {'problem': 0.2318840579710145}
problem 881 {'problem': 0.2318840579710145}
problem 883 {'problem': 0.2318840579710145}
problem 890 {'problem': 0.2318840579710145}
problem 891 {'problem': 0.2585089141004862}
problem 894 {'problem': 0.2318840579710145}
problem 903 {'problem': 0.2318840579710145}
problem 909 {'problem': 0.2318840579710145}
problem 910 {'problem': 0.2585089141004862}
problem 911 {'problem': 0.2318840579710145}
problem 912 {'problem': 0.2585089141004862}
problem 915 {'problem': 0.2318840579710145}
problem 916 {'problem': 0.2318840579710145}
problem 918 {'problem': 0.2318840579710145}
problem 919 {'problem': 0.2318840579710145}
problem 920 {'problem': 0.2585089141004862}
problem 922 {'problem': 0.2318840579710145}
problem 939 {'problem': 0.2318840579710145}
problem 945 {'problem': 0.2318840579710145}
problem 962 {'problem': 0.2318840579710145}
problem 963 {'problem': 0.2318840579710145}
problem 964 {'problem': 0.2318840579710145}
problem 965 {'problem': 0.2318840579710145}
problem 969 {'problem': 0.2318840579710145}
problem 978 {'problem': 0.2318840579710145}
problem 983 {'problem': 0.2318840579710145}
problem 989 {'problem': 0.2318840579710145}
problem 994 {'problem': 0.2318840579710145}
problem 995 {'problem': 0.2318840579710145}
problem 1010 {'problem': 0.2318840579710145}
problem 1011 {'problem': 0.2318840579710145}
problem 1012 {'problem': 0.2585089141004862}
problem 1013 {'problem': 0.2318840579710145}
problem 1016 {'problem': 0.2318840579710145}
problem 1017 {'problem': 0.2585089141004862}
problem 1023 {'problem': 0.2585089141004862}
problem 1024 {'problem': 0.2585089141004862}
problem 1028 {'problem': 0.2318840579710145}
problem 1032 {'problem': 0.2318840579710145}
problem 1033 {'problem': 0.2318840579710145}
problem 1034 {'problem': 0.2585089141004862}
problem 1036 {'problem': 0.2585089141004862}
problem 1037 {'problem': 0.2318840579710145}
problem 1042 {'problem': 0.2318840579710145}
problem 1049 {'problem': 0.2585089141004862}
problem 1053 {'problem': 0.2318840579710145}
problem 1061 {'problem': 0.2318840579710145}
problem 1064 {'problem': 0.2318840579710145}
problem 1068 {'problem': 0.2318840579710145}
problem 1069 {'problem': 0.2318840579710145}
problem 1070 {'problem': 0.2318840579710145}
problem 1089 {'problem': 0.2318840579710145}
problem 1100 {'problem': 0.2318840579710145}
problem 1103 {'problem': 0.2318840579710145}
problem 1110 {'problem': 0.2318840579710145}
problem 1118 {'problem': 0.2318840579710145}
problem 1119 {'problem': 0.2318840579710145}
problem 1128 {'problem': 0.2318840579710145}
problem 1129 {'problem': 0.2318840579710145}
problem 1131 {'problem': 0.2318840579710145}
problem 1149 {'problem': 0.2318840579710145}
problem 1153 {'problem': 0.2585089141004862}
problem 1159 {'problem': 0.2318840579710145}
problem 1161 {'problem': 0.2318840579710145}
problem 1165 {'problem': 0.2318840579710145}
problem 1170 {'problem': 0.2318840579710145}
problem 1177 {'problem': 0.2318840579710145}
problem 1178 {'problem': 0.2318840579710145}
problem 1181 {'problem': 0.2318840579710145}
problem 1182 {'problem': 0.2318840579710145}
problem 1186 {'problem': 0.2318840579710145}
problem 1189 {'problem': 0.2318840579710145}
problem 1190 {'problem': 0.2318840579710145}
problem 1196 {'problem': 0.2318840579710145}
problem 1198 {'problem': 0.2318840579710145}
problem 1203 {'problem': 0.2318840579710145}
problem 1212 {'problem': 0.2318840579710145}
problem 1214 {'problem': 0.2318840579710145}
problem 1218 {'problem': 0.2318840579710145}
problem 1219 {'problem': 0.2318840579710145}
problem 1225 {'problem': 0.2318840579710145}
problem 1227 {'problem': 0.2318840579710145}
problem 1232 {'problem': 0.2318840579710145}
problem 1234 {'problem': 0.2318840579710145}
problem 1242 {'problem': 0.2318840579710145}
problem 1244 {'problem': 0.2318840579710145}
problem 1252 {'problem': 0.2318840579710145}
problem 1258 {'problem': 0.2318840579710145}
problem 1259 {'problem': 0.2318840579710145}
problem 1260 {'problem': 0.2585089141004862}
problem 1262 {'problem': 0.2318840579710145}
problem 1272 {'problem': 0.2318840579710145}
problem 1273 {'problem': 0.2318840579710145}
problem 1274 {'problem': 0.2318840579710145}
problem 1280 {'problem': 0.2318840579710145}
problem 1288 {'problem': 0.2318840579710145}
problem 1290 {'problem': 0.2318840579710145}
problem 1299 {'problem': 0.2318840579710145}
problem 1309 {'problem': 0.2318840579710145}
problem 1312 {'problem': 0.2318840579710145}
problem 1324 {'problem': 0.2318840579710145}
problem 1340 {'problem': 0.2318840579710145}
problem 1341 {'problem': 0.2585089141004862}
problem 1349 {'problem': 0.2318840579710145}
problem 1354 {'problem': 0.2318840579710145}
problem 1355 {'problem': 0.2318840579710145}
problem 1356 {'problem': 0.2318840579710145}
problem 1358 {'problem': 0.2318840579710145}
problem 1359 {'problem': 0.2585089141004862}
problem 1368 {'problem': 0.2318840579710145}
problem 1369 {'problem': 0.2318840579710145}
problem 1371 {'problem': 0.2318840579710145}
problem 1377 {'problem': 0.2585089141004862}
problem 28 {'problem': 0.2593192868719611}
problem 29 {'problem': 0.2593192868719611}
problem 30 {'problem': 0.2593192868719611}
problem 65 {'problem': 0.2593192868719611}
problem 94 {'problem': 0.2593192868719611}
problem 99 {'problem': 0.2593192868719611}
problem 129 {'problem': 0.2593192868719611}
problem 131 {'problem': 0.2593192868719611}
problem 133 {'problem': 0.2593192868719611}
problem 161 {'problem': 0.2593192868719611}
problem 162 {'problem': 0.2593192868719611}
problem 182 {'problem': 0.2593192868719611}
problem 187 {'problem': 0.2593192868719611}
problem 190 {'problem': 0.2593192868719611}
problem 248 {'problem': 0.2593192868719611}
problem 250 {'problem': 0.2593192868719611}
problem 341 {'problem': 0.2593192868719611}
problem 390 {'problem': 0.2593192868719611}
problem 393 {'problem': 0.2593192868719611}
problem 405 {'problem': 0.2593192868719611}
problem 408 {'problem': 0.2593192868719611}
problem 411 {'problem': 0.2593192868719611}
problem 487 {'problem': 0.2593192868719611}
problem 551 {'problem': 0.2593192868719611}
problem 568 {'problem': 0.2593192868719611}
problem 580 {'problem': 0.2593192868719611}
problem 584 {'problem': 0.2593192868719611}
problem 597 {'problem': 0.2593192868719611}
problem 705 {'problem': 0.2593192868719611}
problem 707 {'problem': 0.2593192868719611}
problem 710 {'problem': 0.2593192868719611}
problem 712 {'problem': 0.2593192868719611}
problem 714 {'problem': 0.2593192868719611}
problem 726 {'problem': 0.2593192868719611}
problem 727 {'problem': 0.2593192868719611}
problem 745 {'problem': 0.2593192868719611}
problem 747 {'problem': 0.2593192868719611}
problem 749 {'problem': 0.2593192868719611}
problem 750 {'problem': 0.2593192868719611}
problem 751 {'problem': 0.2593192868719611}
problem 801 {'problem': 0.2593192868719611}
problem 803 {'problem': 0.2593192868719611}
problem 804 {'problem': 0.2593192868719611}
problem 806 {'problem': 0.2593192868719611}
problem 809 {'problem': 0.2593192868719611}
problem 814 {'problem': 0.2593192868719611}
problem 820 {'problem': 0.2593192868719611}
problem 823 {'problem': 0.2593192868719611}
problem 825 {'problem': 0.2593192868719611}
problem 834 {'problem': 0.2593192868719611}
problem 835 {'problem': 0.2593192868719611}
problem 841 {'problem': 0.2593192868719611}
problem 842 {'problem': 0.2593192868719611}
problem 849 {'problem': 0.2593192868719611}
problem 851 {'problem': 0.2593192868719611}
problem 853 {'problem': 0.2593192868719611}
problem 856 {'problem': 0.2593192868719611}
problem 859 {'problem': 0.2593192868719611}
problem 863 {'problem': 0.2593192868719611}
problem 865 {'problem': 0.2593192868719611}
problem 867 {'problem': 0.2593192868719611}
problem 870 {'problem': 0.2593192868719611}
problem 872 {'problem': 0.2593192868719611}
problem 879 {'problem': 0.2593192868719611}
problem 917 {'problem': 0.2593192868719611}
problem 935 {'problem': 0.2593192868719611}
problem 936 {'problem': 0.2593192868719611}
problem 993 {'problem': 0.2593192868719611}
problem 996 {'problem': 0.2593192868719611}
problem 999 {'problem': 0.2593192868719611}
problem 1000 {'problem': 0.2593192868719611}
problem 1006 {'problem': 0.2593192868719611}
problem 1008 {'problem': 0.2593192868719611}
problem 1015 {'problem': 0.2593192868719611}
problem 1018 {'problem': 0.2593192868719611}
problem 1019 {'problem': 0.2593192868719611}
problem 1020 {'problem': 0.2593192868719611}
problem 1022 {'problem': 0.2593192868719611}
problem 1025 {'problem': 0.2593192868719611}
problem 1027 {'problem': 0.2593192868719611}
problem 1039 {'problem': 0.2593192868719611}
problem 1040 {'problem': 0.2593192868719611}
problem 1052 {'problem': 0.2593192868719611}
problem 1097 {'problem': 0.2593192868719611}
problem 1104 {'problem': 0.2593192868719611}
problem 1108 {'problem': 0.2593192868719611}
problem 1109 {'problem': 0.2593192868719611}
problem 1115 {'problem': 0.2593192868719611}
problem 1117 {'problem': 0.2593192868719611}
problem 1127 {'problem': 0.2593192868719611}
problem 1152 {'problem': 0.2593192868719611}
problem 1155 {'problem': 0.2593192868719611}
problem 1157 {'problem': 0.2593192868719611}
problem 1158 {'problem': 0.2593192868719611}
problem 1206 {'problem': 0.2593192868719611}
problem 1223 {'problem': 0.2593192868719611}
problem 1254 {'problem': 0.2593192868719611}
problem 1301 {'problem': 0.2593192868719611}
problem 1366 {'problem': 0.2593192868719611}
problem 1376 {'problem': 0.2593192868719611}
problem 1378 {'problem': 0.2593192868719611}
problem 1379 {'problem': 0.2593192868719611}
work 18 {'work': 0.08497246262785209}
work 27 {'work': 0.08497246262785209}
work 28 {'work': 0.08497246262785209}
work 33 {'work': 0.08497246262785209}
work 48 {'work': 0.08497246262785209}
work 94 {'work': 0.08497246262785209}
work 98 {'work': 0.08497246262785209}
work 107 {'work': 0.08497246262785209}
work 120 {'work': 0.08497246262785209}
work 121 {'work': 0.08497246262785209}
work 136 {'work': 0.08497246262785209}
work 137 {'work': 0.08497246262785209}
work 143 {'work': 0.08497246262785209}
work 145 {'work': 0.08497246262785209}
work 152 {'work': 0.08497246262785209}
work 180 {'work': 0.08497246262785209}
work 181 {'work': 0.08497246262785209}
work 191 {'work': 0.08497246262785209}
work 197 {'work': 0.08497246262785209}
work 202 {'work': 0.08497246262785209}
work 205 {'work': 0.08497246262785209}
work 206 {'work': 0.08497246262785209}
work 207 {'work': 0.08497246262785209}
work 235 {'work': 0.08497246262785209}
work 237 {'work': 0.08497246262785209}
work 238 {'work': 0.08497246262785209}
work 239 {'work': 0.08497246262785209}
work 247 {'work': 0.08497246262785209}
work 255 {'work': 0.08497246262785209}
work 287 {'work': 0.08497246262785209}
work 309 {'work': 0.08497246262785209}
work 321 {'work': 0.08497246262785209}
work 332 {'work': 0.08497246262785209}
work 337 {'work': 0.08497246262785209}
work 338 {'work': 0.08497246262785209}
work 354 {'work': 0.08497246262785209}
work 369 {'work': 0.08497246262785209}
work 393 {'work': 0.08497246262785209}
work 405 {'work': 0.08497246262785209}
work 406 {'work': 0.08497246262785209}
work 407 {'work': 0.08497246262785209}
work 409 {'work': 0.08497246262785209}
work 420 {'work': 0.08497246262785209}
work 422 {'work': 0.08497246262785209}
work 443 {'work': 0.08497246262785209}
work 449 {'work': 0.08497246262785209}
work 505 {'work': 0.08497246262785209}
work 510 {'work': 0.08497246262785209}
work 539 {'work': 0.08497246262785209}
work 563 {'work': 0.08497246262785209}
work 567 {'work': 0.08497246262785209}
work 591 {'work': 0.08497246262785209}
work 593 {'work': 0.08497246262785209}
work 595 {'work': 0.08497246262785209}
work 604 {'work': 0.08497246262785209}
work 626 {'work': 0.08497246262785209}
work 635 {'work': 0.08497246262785209}
work 642 {'work': 0.08497246262785209}
work 646 {'work': 0.08497246262785209}
work 658 {'work': 0.08497246262785209}
work 663 {'work': 0.08497246262785209}
work 705 {'work': 0.08497246262785209}
work 718 {'work': 0.08497246262785209}
work 725 {'work': 0.08497246262785209}
work 727 {'work': 0.08497246262785209}
work 733 {'work': 0.08497246262785209}
work 740 {'work': 0.08497246262785209}
work 745 {'work': 0.08497246262785209}
work 776 {'work': 0.08497246262785209}
work 782 {'work': 0.08497246262785209}
work 783 {'work': 0.08497246262785209}
work 784 {'work': 0.08497246262785209}
work 801 {'work': 0.08497246262785209}
work 810 {'work': 0.08497246262785209}
work 817 {'work': 0.08497246262785209}
work 852 {'work': 0.08497246262785209}
work 863 {'work': 0.08497246262785209}
work 880 {'work': 0.08497246262785209}
work 896 {'work': 0.08497246262785209}
work 899 {'work': 0.08497246262785209}
work 931 {'work': 0.08497246262785209}
work 950 {'work': 0.08497246262785209}
work 988 {'work': 0.08497246262785209}
work 994 {'work': 0.08497246262785209}
work 1016 {'work': 0.08497246262785209}
work 1027 {'work': 0.08497246262785209}
work 1028 {'work': 0.08497246262785209}
work 1035 {'work': 0.08497246262785209}
work 1039 {'work': 0.08497246262785209}
work 1049 {'work': 0.08497246262785209}
work 1061 {'work': 0.08497246262785209}
work 1063 {'work': 0.08497246262785209}
work 1064 {'work': 0.08497246262785209}
work 1106 {'work': 0.08497246262785209}
work 1127 {'work': 0.08497246262785209}
work 1140 {'work': 0.08497246262785209}
work 1168 {'work': 0.08497246262785209}
work 1170 {'work': 0.08497246262785209}
work 1247 {'work': 0.08497246262785209}
work 1265 {'work': 0.08497246262785209}
work 1288 {'work': 0.08497246262785209}
work 1289 {'work': 0.08497246262785209}
work 1294 {'work': 0.08497246262785209}
work 1295 {'work': 0.08497246262785209}
work 1301 {'work': 0.08497246262785209}
work 1322 {'work': 0.08497246262785209}
work 1339 {'work': 0.08497246262785209}
work 1362 {'work': 0.08497246262785209}
work 1364 {'work': 0.08497246262785209}
light 40 {'light': 0.017712177121771217}
light 45 {'light': 0.03838729248248855}
light 123 {'light': 0.017712177121771217}
light 143 {'light': 0.017712177121771217}
light 209 {'light': 0.017712177121771217}
light 214 {'light': 0.017712177121771217}
light 237 {'light': 0.017712177121771217}
light 264 {'light': 0.017712177121771217}
light 278 {'light': 0.017712177121771217}
light 394 {'light': 0.017712177121771217}
light 434 {'light': 0.017712177121771217}
light 442 {'light': 0.017712177121771217}
light 445 {'light': 0.017712177121771217}
light 471 {'light': 0.017712177121771217}
light 489 {'light': 0.017712177121771217}
light 587 {'light': 0.017712177121771217}
light 711 {'light': 0.017712177121771217}
light 714 {'light': 0.017712177121771217}
light 803 {'light': 0.017712177121771217}
light 1197 {'light': 0.017712177121771217}
light 1222 {'light': 0.017712177121771217}
light 1236 {'light': 0.017712177121771217}
light 1295 {'light': 0.017712177121771217}
light 1300 {'light': 0.017712177121771217}
light 1343 {'light': 0.017712177121771217}
light 0 {'light': 0.015952622312329936}
light 114 {'light': 0.015952622312329936}
light 173 {'light': 0.015952622312329936}
light 182 {'light': 0.015952622312329936}
light 204 {'light': 0.03838729248248855}
light 252 {'light': 0.015952622312329936}
light 298 {'light': 0.015952622312329936}
light 561 {'light': 0.015952622312329936}
light 989 {'light': 0.015952622312329936}
light 1048 {'light': 0.015952622312329936}
light 1211 {'light': 0.015952622312329936}
light 1240 {'light': 0.015952622312329936}
light 1314 {'light': 0.015952622312329936}
light 1443 {'light': 0.015952622312329936}
light 1461 {'light': 0.015952622312329936}
light 1622 {'light': 0.015952622312329936}
light 1687 {'light': 0.015952622312329936}
light 1737 {'light': 0.015952622312329936}
light 1807 {'light': 0.015952622312329936}
light 1850 {'light': 0.015952622312329936}
light 2260 {'light': 0.015952622312329936}
light 2262 {'light': 0.015952622312329936}
light 2366 {'light': 0.015952622312329936}
light 2488 {'light': 0.015952622312329936}
light 2533 {'light': 0.015952622312329936}
light 2549 {'light': 0.015952622312329936}
light 2650 {'light': 0.015952622312329936}
light 2664 {'light': 0.015952622312329936}
light 2695 {'light': 0.015952622312329936}
light 2864 {'light': 0.015952622312329936}
light 2928 {'light': 0.015952622312329936}
light 3037 {'light': 0.015952622312329936}
light 3118 {'light': 0.015952622312329936}
light 3159 {'light': 0.015952622312329936}
light 3369 {'light': 0.015952622312329936}
light 3387 {'light': 0.015952622312329936}
light 3480 {'light': 0.015952622312329936}
light 3539 {'light': 0.015952622312329936}
light 3560 {'light': 0.015952622312329936}
light 3572 {'light': 0.015952622312329936}
light 3579 {'light': 0.015952622312329936}
light 3668 {'light': 0.015952622312329936}
light 3671 {'light': 0.015952622312329936}
light 3750 {'light': 0.015952622312329936}
light 3907 {'light': 0.015952622312329936}
light 3944 {'light': 0.015952622312329936}
light 3986 {'light': 0.015952622312329936}
light 4092 {'light': 0.015952622312329936}
light 4112 {'light': 0.015952622312329936}
light 4207 {'light': 0.015952622312329936}
light 4214 {'light': 0.015952622312329936}
light 4237 {'light': 0.015952622312329936}
light 4259 {'light': 0.015952622312329936}
light 4263 {'light': 0.015952622312329936}
light 4362 {'light': 0.015952622312329936}
light 4422 {'light': 0.015952622312329936}
light 4432 {'light': 0.015952622312329936}
light 4534 {'light': 0.015952622312329936}
light 4822 {'light': 0.015952622312329936}
light 4836 {'light': 0.015952622312329936}
light 5088 {'light': 0.015952622312329936}
light 5227 {'light': 0.015952622312329936}
light 5270 {'light': 0.015952622312329936}
light 5479 {'light': 0.015952622312329936}
light 5612 {'light': 0.015952622312329936}
light 5614 {'light': 0.015952622312329936}
light 5618 {'light': 0.015952622312329936}
light 5643 {'light': 0.015952622312329936}
light 5653 {'light': 0.015952622312329936}
light 5849 {'light': 0.015952622312329936}
light 5981 {'light': 0.015952622312329936}
light 6089 {'light': 0.015952622312329936}
light 6092 {'light': 0.015952622312329936}
light 6134 {'light': 0.015952622312329936}
light 6165 {'light': 0.015952622312329936}
light 6175 {'light': 0.015952622312329936}
light 6179 {'light': 0.015952622312329936}
light 6289 {'light': 0.015952622312329936}
light 6454 {'light': 0.015952622312329936}
light 6544 {'light': 0.015952622312329936}
light 6598 {'light': 0.015952622312329936}
light 6640 {'light': 0.015952622312329936}
light 6837 {'light': 0.015952622312329936}
light 7122 {'light': 0.015952622312329936}
light 7207 {'light': 0.015952622312329936}
light 7294 {'light': 0.03838729248248855}
light 7325 {'light': 0.015952622312329936}
light 7338 {'light': 0.015952622312329936}
light 7394 {'light': 0.015952622312329936}
light 7413 {'light': 0.015952622312329936}
light 7558 {'light': 0.015952622312329936}
light 7580 {'light': 0.015952622312329936}
light 7622 {'light': 0.015952622312329936}
light 7698 {'light': 0.015952622312329936}
light 7703 {'light': 0.015952622312329936}
light 7846 {'light': 0.015952622312329936}
light 7885 {'light': 0.03838729248248855}
light 8193 {'light': 0.015952622312329936}
light 8202 {'light': 0.015952622312329936}
light 8262 {'light': 0.015952622312329936}
light 8406 {'light': 0.015952622312329936}
light 8463 {'light': 0.015952622312329936}
light 8464 {'light': 0.015952622312329936}
light 8516 {'light': 0.015952622312329936}
light 8534 {'light': 0.03838729248248855}
light 8542 {'light': 0.015952622312329936}
light 8685 {'light': 0.015952622312329936}
light 8693 {'light': 0.015952622312329936}
light 8731 {'light': 0.015952622312329936}
light 8785 {'light': 0.015952622312329936}
light 8798 {'light': 0.015952622312329936}
light 8814 {'light': 0.015952622312329936}
light 8886 {'light': 0.015952622312329936}
light 8897 {'light': 0.015952622312329936}
light 8925 {'light': 0.015952622312329936}
light 8941 {'light': 0.015952622312329936}
light 8958 {'light': 0.015952622312329936}
light 8998 {'light': 0.015952622312329936}
light 9164 {'light': 0.015952622312329936}
light 9244 {'light': 0.015952622312329936}
light 9309 {'light': 0.015952622312329936}
light 9392 {'light': 0.015952622312329936}
light 9430 {'light': 0.015952622312329936}
light 9447 {'light': 0.015952622312329936}
light 9456 {'light': 0.015952622312329936}
light 9480 {'light': 0.015952622312329936}
light 9550 {'light': 0.015952622312329936}
light 9668 {'light': 0.015952622312329936}
light 9732 {'light': 0.015952622312329936}
light 9753 {'light': 0.015952622312329936}
light 9766 {'light': 0.015952622312329936}
light 9836 {'light': 0.015952622312329936}
light 9998 {'light': 0.03838729248248855}
light 10188 {'light': 0.015952622312329936}
light 10239 {'light': 0.015952622312329936}
light 10282 {'light': 0.015952622312329936}
light 10375 {'light': 0.015952622312329936}
light 10464 {'light': 0.015952622312329936}
light 10501 {'light': 0.015952622312329936}
light 10542 {'light': 0.015952622312329936}
light 10628 {'light': 0.015952622312329936}
light 10736 {'light': 0.015952622312329936}
light 10785 {'light': 0.015952622312329936}
light 11143 {'light': 0.015952622312329936}
light 11226 {'light': 0.015952622312329936}
light 11303 {'light': 0.015952622312329936}
light 11321 {'light': 0.015952622312329936}
light 11351 {'light': 0.015952622312329936}
light 11563 {'light': 0.015952622312329936}
light 11617 {'light': 0.015952622312329936}
light 11636 {'light': 0.015952622312329936}
light 11653 {'light': 0.015952622312329936}
light 11717 {'light': 0.015952622312329936}
light 11839 {'light': 0.015952622312329936}
light 11942 {'light': 0.015952622312329936}
light 12013 {'light': 0.015952622312329936}
light 12100 {'light': 0.015952622312329936}
light 12142 {'light': 0.015952622312329936}
light 12187 {'light': 0.015952622312329936}
light 12221 {'light': 0.015952622312329936}
light 12235 {'light': 0.015952622312329936}
light 12253 {'light': 0.015952622312329936}
light 12255 {'light': 0.015952622312329936}
light 12262 {'light': 0.015952622312329936}
light 12311 {'light': 0.015952622312329936}
light 12317 {'light': 0.015952622312329936}
light 12323 {'light': 0.015952622312329936}
light 12332 {'light': 0.015952622312329936}
light 12335 {'light': 0.015952622312329936}
light 12358 {'light': 0.03838729248248855}
light 12386 {'light': 0.03838729248248855}
light 12403 {'light': 0.03838729248248855}
light 12415 {'light': 0.015952622312329936}
light 12420 {'light': 0.015952622312329936}
light 12451 {'light': 0.015952622312329936}
light 12508 {'light': 0.015952622312329936}
light 12525 {'light': 0.015952622312329936}
light 12526 {'light': 0.03838729248248855}
light 12551 {'light': 0.015952622312329936}
light 12555 {'light': 0.015952622312329936}
light 12561 {'light': 0.015952622312329936}
light 12567 {'light': 0.015952622312329936}
light 12602 {'light': 0.015952622312329936}
light 12608 {'light': 0.015952622312329936}
light 12619 {'light': 0.015952622312329936}
light 12643 {'light': 0.015952622312329936}
light 12656 {'light': 0.015952622312329936}
light 12663 {'light': 0.015952622312329936}
light 12688 {'light': 0.015952622312329936}
light 12702 {'light': 0.015952622312329936}
light 12710 {'light': 0.015952622312329936}
light 12719 {'light': 0.015952622312329936}
light 12732 {'light': 0.015952622312329936}
light 12737 {'light': 0.015952622312329936}
light 12739 {'light': 0.015952622312329936}
light 12762 {'light': 0.015952622312329936}
light 12765 {'light': 0.015952622312329936}
light 12786 {'light': 0.015952622312329936}
light 12807 {'light': 0.015952622312329936}
light 12820 {'light': 0.015952622312329936}
light 12848 {'light': 0.015952622312329936}
light 12880 {'light': 0.015952622312329936}
light 12912 {'light': 0.03838729248248855}
light 12931 {'light': 0.015952622312329936}
light 13002 {'light': 0.015952622312329936}
light 13007 {'light': 0.015952622312329936}
light 13237 {'light': 0.015952622312329936}
light 13429 {'light': 0.015952622312329936}
light 13441 {'light': 0.015952622312329936}
light 13445 {'light': 0.015952622312329936}
light 13507 {'light': 0.015952622312329936}
light 13553 {'light': 0.015952622312329936}
light 13620 {'light': 0.015952622312329936}
light 13646 {'light': 0.015952622312329936}
light 13693 {'light': 0.015952622312329936}
light 13698 {'light': 0.015952622312329936}
light 13889 {'light': 0.015952622312329936}
light 13983 {'light': 0.015952622312329936}
light 14111 {'light': 0.015952622312329936}
light 14149 {'light': 0.015952622312329936}
light 14178 {'light': 0.03838729248248855}
light 14306 {'light': 0.015952622312329936}
light 14315 {'light': 0.015952622312329936}
light 14420 {'light': 0.015952622312329936}
light 14641 {'light': 0.015952622312329936}
light 14791 {'light': 0.015952622312329936}
light 14928 {'light': 0.015952622312329936}
light 14936 {'light': 0.015952622312329936}
light 14951 {'light': 0.015952622312329936}
light 14953 {'light': 0.015952622312329936}
light 15073 {'light': 0.015952622312329936}
light 15154 {'light': 0.015952622312329936}
light 15222 {'light': 0.015952622312329936}
light 15227 {'light': 0.015952622312329936}
light 15240 {'light': 0.015952622312329936}
light 15245 {'light': 0.015952622312329936}
light 15279 {'light': 0.015952622312329936}
light 15292 {'light': 0.015952622312329936}
light 15440 {'light': 0.015952622312329936}
light 15453 {'light': 0.015952622312329936}
light 15456 {'light': 0.015952622312329936}
light 15575 {'light': 0.015952622312329936}
light 15685 {'light': 0.015952622312329936}
light 15707 {'light': 0.015952622312329936}
light 15710 {'light': 0.015952622312329936}
light 15839 {'light': 0.015952622312329936}
light 15861 {'light': 0.015952622312329936}
light 15869 {'light': 0.015952622312329936}
light 15966 {'light': 0.015952622312329936}
light 16075 {'light': 0.015952622312329936}
light 16156 {'light': 0.015952622312329936}
light 16224 {'light': 0.015952622312329936}
light 16288 {'light': 0.015952622312329936}
light 16371 {'light': 0.015952622312329936}
light 16395 {'light': 0.015952622312329936}
light 16431 {'light': 0.015952622312329936}
light 16457 {'light': 0.015952622312329936}
light 16481 {'light': 0.015952622312329936}
light 16547 {'light': 0.03838729248248855}
light 16573 {'light': 0.015952622312329936}
light 16589 {'light': 0.015952622312329936}
light 16625 {'light': 0.03838729248248855}
light 16632 {'light': 0.015952622312329936}
light 16657 {'light': 0.015952622312329936}
light 16665 {'light': 0.015952622312329936}
light 16689 {'light': 0.015952622312329936}
light 16695 {'light': 0.015952622312329936}
light 16715 {'light': 0.015952622312329936}
light 16756 {'light': 0.015952622312329936}
light 16964 {'light': 0.015952622312329936}
light 16992 {'light': 0.03838729248248855}
light 17116 {'light': 0.015952622312329936}
light 17123 {'light': 0.015952622312329936}
light 17166 {'light': 0.015952622312329936}
light 17252 {'light': 0.015952622312329936}
light 17355 {'light': 0.015952622312329936}
light 17393 {'light': 0.015952622312329936}
light 17405 {'light': 0.015952622312329936}
light 17500 {'light': 0.015952622312329936}
light 17516 {'light': 0.015952622312329936}
light 17657 {'light': 0.015952622312329936}
light 17729 {'light': 0.015952622312329936}
light 17763 {'light': 0.015952622312329936}
light 17809 {'light': 0.015952622312329936}
light 17822 {'light': 0.015952622312329936}
light 17965 {'light': 0.015952622312329936}
light 18204 {'light': 0.015952622312329936}
light 18339 {'light': 0.015952622312329936}
light 18349 {'light': 0.015952622312329936}
light 18378 {'light': 0.015952622312329936}
light 18430 {'light': 0.015952622312329936}
light 18533 {'light': 0.015952622312329936}
light 18580 {'light': 0.015952622312329936}
light 18623 {'light': 0.015952622312329936}
light 18638 {'light': 0.03838729248248855}
light 18680 {'light': 0.015952622312329936}
light 18700 {'light': 0.015952622312329936}
light 18735 {'light': 0.015952622312329936}
light 18971 {'light': 0.015952622312329936}
light 18987 {'light': 0.015952622312329936}
light 19 {'light': 0.03838729248248855}
light 82 {'light': 0.03838729248248855}
light 134 {'light': 0.03838729248248855}
light 168 {'light': 0.03838729248248855}
light 192 {'light': 0.03838729248248855}
light 193 {'light': 0.03838729248248855}
light 347 {'light': 0.03838729248248855}
light 377 {'light': 0.03838729248248855}
light 396 {'light': 0.03838729248248855}
light 410 {'light': 0.03838729248248855}
light 429 {'light': 0.03838729248248855}
light 456 {'light': 0.03838729248248855}
light 545 {'light': 0.03838729248248855}
light 546 {'light': 0.03838729248248855}
light 592 {'light': 0.03838729248248855}
light 593 {'light': 0.03838729248248855}
light 632 {'light': 0.03838729248248855}
light 637 {'light': 0.03838729248248855}
light 775 {'light': 0.03838729248248855}
light 780 {'light': 0.03838729248248855}
light 884 {'light': 0.03838729248248855}
light 893 {'light': 0.03838729248248855}
light 970 {'light': 0.03838729248248855}
light 1004 {'light': 0.03838729248248855}
light 1005 {'light': 0.03838729248248855}
light 1199 {'light': 0.03838729248248855}
light 1380 {'light': 0.03838729248248855}
light 1401 {'light': 0.03838729248248855}
light 1429 {'light': 0.03838729248248855}
light 1459 {'light': 0.03838729248248855}
light 1465 {'light': 0.03838729248248855}
light 1468 {'light': 0.03838729248248855}
light 1470 {'light': 0.03838729248248855}
light 1521 {'light': 0.03838729248248855}
light 1604 {'light': 0.03838729248248855}
light 1606 {'light': 0.03838729248248855}
light 1624 {'light': 0.03838729248248855}
light 1696 {'light': 0.03838729248248855}
light 1723 {'light': 0.03838729248248855}
light 1806 {'light': 0.03838729248248855}
light 1871 {'light': 0.03838729248248855}
light 1976 {'light': 0.03838729248248855}
light 2208 {'light': 0.03838729248248855}
light 2316 {'light': 0.03838729248248855}
light 2317 {'light': 0.03838729248248855}
light 2600 {'light': 0.03838729248248855}
light 2612 {'light': 0.03838729248248855}
light 2634 {'light': 0.03838729248248855}
light 2721 {'light': 0.03838729248248855}
light 2759 {'light': 0.03838729248248855}
light 2762 {'light': 0.03838729248248855}
light 2835 {'light': 0.03838729248248855}
light 2842 {'light': 0.03838729248248855}
light 2858 {'light': 0.03838729248248855}
light 2877 {'light': 0.03838729248248855}
light 2904 {'light': 0.03838729248248855}
light 2980 {'light': 0.03838729248248855}
light 2993 {'light': 0.03838729248248855}
light 3003 {'light': 0.03838729248248855}
light 3071 {'light': 0.03838729248248855}
light 3100 {'light': 0.03838729248248855}
light 3123 {'light': 0.03838729248248855}
light 3128 {'light': 0.03838729248248855}
light 3132 {'light': 0.03838729248248855}
light 3136 {'light': 0.03838729248248855}
light 3150 {'light': 0.03838729248248855}
light 3186 {'light': 0.03838729248248855}
light 3247 {'light': 0.03838729248248855}
light 3302 {'light': 0.03838729248248855}
light 3342 {'light': 0.03838729248248855}
light 3469 {'light': 0.03838729248248855}
light 3472 {'light': 0.03838729248248855}
light 3597 {'light': 0.03838729248248855}
light 3684 {'light': 0.03838729248248855}
light 3689 {'light': 0.03838729248248855}
light 3740 {'light': 0.03838729248248855}
light 3898 {'light': 0.03838729248248855}
light 3899 {'light': 0.03838729248248855}
light 3935 {'light': 0.03838729248248855}
light 3955 {'light': 0.03838729248248855}
light 4119 {'light': 0.03838729248248855}
light 4126 {'light': 0.03838729248248855}
light 4136 {'light': 0.03838729248248855}
light 4209 {'light': 0.03838729248248855}
light 4264 {'light': 0.03838729248248855}
light 4317 {'light': 0.03838729248248855}
light 4358 {'light': 0.03838729248248855}
light 4372 {'light': 0.03838729248248855}
light 4374 {'light': 0.03838729248248855}
light 4377 {'light': 0.03838729248248855}
light 4420 {'light': 0.03838729248248855}
light 4448 {'light': 0.03838729248248855}
light 4581 {'light': 0.03838729248248855}
light 4630 {'light': 0.03838729248248855}
light 4662 {'light': 0.03838729248248855}
light 4699 {'light': 0.03838729248248855}
light 4734 {'light': 0.03838729248248855}
light 4737 {'light': 0.03838729248248855}
light 4748 {'light': 0.03838729248248855}
light 4767 {'light': 0.03838729248248855}
light 4864 {'light': 0.03838729248248855}
light 4988 {'light': 0.03838729248248855}
light 5053 {'light': 0.03838729248248855}
light 5468 {'light': 0.03838729248248855}
light 5745 {'light': 0.03838729248248855}
light 5828 {'light': 0.03838729248248855}
light 5897 {'light': 0.03838729248248855}
light 5901 {'light': 0.03838729248248855}
light 5911 {'light': 0.03838729248248855}
light 5926 {'light': 0.03838729248248855}
light 5952 {'light': 0.03838729248248855}
light 5960 {'light': 0.03838729248248855}
light 5985 {'light': 0.03838729248248855}
light 6024 {'light': 0.03838729248248855}
light 6035 {'light': 0.03838729248248855}
light 6038 {'light': 0.03838729248248855}
light 6050 {'light': 0.03838729248248855}
light 6054 {'light': 0.03838729248248855}
light 6084 {'light': 0.03838729248248855}
light 6136 {'light': 0.03838729248248855}
light 6178 {'light': 0.03838729248248855}
light 6188 {'light': 0.03838729248248855}
light 6210 {'light': 0.03838729248248855}
light 6298 {'light': 0.03838729248248855}
light 6330 {'light': 0.03838729248248855}
light 6349 {'light': 0.03838729248248855}
light 6457 {'light': 0.03838729248248855}
light 6516 {'light': 0.03838729248248855}
light 6520 {'light': 0.03838729248248855}
light 6531 {'light': 0.03838729248248855}
light 6535 {'light': 0.03838729248248855}
light 6597 {'light': 0.03838729248248855}
light 6641 {'light': 0.03838729248248855}
light 6648 {'light': 0.03838729248248855}
light 6661 {'light': 0.03838729248248855}
light 6678 {'light': 0.03838729248248855}
light 6702 {'light': 0.03838729248248855}
light 6723 {'light': 0.03838729248248855}
light 6780 {'light': 0.03838729248248855}
light 6788 {'light': 0.03838729248248855}
light 6791 {'light': 0.03838729248248855}
light 6792 {'light': 0.03838729248248855}
light 6797 {'light': 0.03838729248248855}
light 6801 {'light': 0.03838729248248855}
light 6805 {'light': 0.03838729248248855}
light 6809 {'light': 0.03838729248248855}
light 6811 {'light': 0.03838729248248855}
light 6814 {'light': 0.03838729248248855}
light 6819 {'light': 0.03838729248248855}
light 6824 {'light': 0.03838729248248855}
light 6830 {'light': 0.03838729248248855}
light 6833 {'light': 0.03838729248248855}
light 6840 {'light': 0.03838729248248855}
light 6856 {'light': 0.03838729248248855}
light 6857 {'light': 0.03838729248248855}
light 6859 {'light': 0.03838729248248855}
light 6863 {'light': 0.03838729248248855}
light 6883 {'light': 0.03838729248248855}
light 6899 {'light': 0.03838729248248855}
light 6920 {'light': 0.03838729248248855}
light 6921 {'light': 0.03838729248248855}
light 6923 {'light': 0.03838729248248855}
light 6950 {'light': 0.03838729248248855}
light 6959 {'light': 0.03838729248248855}
light 6960 {'light': 0.03838729248248855}
light 6963 {'light': 0.03838729248248855}
light 6967 {'light': 0.03838729248248855}
light 7000 {'light': 0.03838729248248855}
light 7002 {'light': 0.03838729248248855}
light 7006 {'light': 0.03838729248248855}
light 7015 {'light': 0.03838729248248855}
light 7033 {'light': 0.03838729248248855}
light 7063 {'light': 0.03838729248248855}
light 7064 {'light': 0.03838729248248855}
light 7216 {'light': 0.03838729248248855}
light 7238 {'light': 0.03838729248248855}
light 7245 {'light': 0.03838729248248855}
light 7260 {'light': 0.03838729248248855}
light 7263 {'light': 0.03838729248248855}
light 7265 {'light': 0.03838729248248855}
light 7266 {'light': 0.03838729248248855}
light 7267 {'light': 0.03838729248248855}
light 7281 {'light': 0.03838729248248855}
light 7288 {'light': 0.03838729248248855}
light 7301 {'light': 0.03838729248248855}
light 7311 {'light': 0.03838729248248855}
light 7312 {'light': 0.03838729248248855}
light 7322 {'light': 0.03838729248248855}
light 7354 {'light': 0.03838729248248855}
light 7361 {'light': 0.03838729248248855}
light 7372 {'light': 0.03838729248248855}
light 7385 {'light': 0.03838729248248855}
light 7391 {'light': 0.03838729248248855}
light 7442 {'light': 0.03838729248248855}
light 7444 {'light': 0.03838729248248855}
light 7462 {'light': 0.03838729248248855}
light 7475 {'light': 0.03838729248248855}
light 7484 {'light': 0.03838729248248855}
light 7496 {'light': 0.03838729248248855}
light 7498 {'light': 0.03838729248248855}
light 7511 {'light': 0.03838729248248855}
light 7513 {'light': 0.03838729248248855}
light 7528 {'light': 0.03838729248248855}
light 7544 {'light': 0.03838729248248855}
light 7555 {'light': 0.03838729248248855}
light 7561 {'light': 0.03838729248248855}
light 7570 {'light': 0.03838729248248855}
light 7590 {'light': 0.03838729248248855}
light 7611 {'light': 0.03838729248248855}
light 7638 {'light': 0.03838729248248855}
light 7642 {'light': 0.03838729248248855}
light 7651 {'light': 0.03838729248248855}
light 7667 {'light': 0.03838729248248855}
light 7683 {'light': 0.03838729248248855}
light 7686 {'light': 0.03838729248248855}
light 7744 {'light': 0.03838729248248855}
light 7767 {'light': 0.03838729248248855}
light 7777 {'light': 0.03838729248248855}
light 7782 {'light': 0.03838729248248855}
light 7789 {'light': 0.03838729248248855}
light 7861 {'light': 0.03838729248248855}
light 7881 {'light': 0.03838729248248855}
light 7886 {'light': 0.03838729248248855}
light 7892 {'light': 0.03838729248248855}
light 7902 {'light': 0.03838729248248855}
light 7917 {'light': 0.03838729248248855}
light 7933 {'light': 0.03838729248248855}
light 7985 {'light': 0.03838729248248855}
light 7988 {'light': 0.03838729248248855}
light 7994 {'light': 0.03838729248248855}
light 8016 {'light': 0.03838729248248855}
light 8021 {'light': 0.03838729248248855}
light 8030 {'light': 0.03838729248248855}
light 8039 {'light': 0.03838729248248855}
light 8060 {'light': 0.03838729248248855}
light 8065 {'light': 0.03838729248248855}
light 8119 {'light': 0.03838729248248855}
light 8132 {'light': 0.03838729248248855}
light 8210 {'light': 0.03838729248248855}
light 8221 {'light': 0.03838729248248855}
light 8224 {'light': 0.03838729248248855}
light 8252 {'light': 0.03838729248248855}
light 8253 {'light': 0.03838729248248855}
light 8295 {'light': 0.03838729248248855}
light 8323 {'light': 0.03838729248248855}
light 8326 {'light': 0.03838729248248855}
light 8331 {'light': 0.03838729248248855}
light 8336 {'light': 0.03838729248248855}
light 8346 {'light': 0.03838729248248855}
light 8349 {'light': 0.03838729248248855}
light 8355 {'light': 0.03838729248248855}
light 8358 {'light': 0.03838729248248855}
light 8386 {'light': 0.03838729248248855}
light 8389 {'light': 0.03838729248248855}
light 8411 {'light': 0.03838729248248855}
light 8415 {'light': 0.03838729248248855}
light 8432 {'light': 0.03838729248248855}
light 8481 {'light': 0.03838729248248855}
light 8487 {'light': 0.03838729248248855}
light 8513 {'light': 0.03838729248248855}
light 8532 {'light': 0.03838729248248855}
light 8546 {'light': 0.03838729248248855}
light 8565 {'light': 0.03838729248248855}
light 8579 {'light': 0.03838729248248855}
light 8599 {'light': 0.03838729248248855}
light 8606 {'light': 0.03838729248248855}
light 8614 {'light': 0.03838729248248855}
light 8628 {'light': 0.03838729248248855}
light 8634 {'light': 0.03838729248248855}
light 8635 {'light': 0.03838729248248855}
light 9090 {'light': 0.03838729248248855}
light 9143 {'light': 0.03838729248248855}
light 9232 {'light': 0.03838729248248855}
light 9339 {'light': 0.03838729248248855}
light 9340 {'light': 0.03838729248248855}
light 9385 {'light': 0.03838729248248855}
light 9416 {'light': 0.03838729248248855}
light 9557 {'light': 0.03838729248248855}
light 9577 {'light': 0.03838729248248855}
light 9596 {'light': 0.03838729248248855}
light 9750 {'light': 0.03838729248248855}
light 9805 {'light': 0.03838729248248855}
light 9829 {'light': 0.03838729248248855}
light 9831 {'light': 0.03838729248248855}
light 9952 {'light': 0.03838729248248855}
light 9955 {'light': 0.03838729248248855}
light 10058 {'light': 0.03838729248248855}
light 10064 {'light': 0.03838729248248855}
light 10103 {'light': 0.03838729248248855}
light 10412 {'light': 0.03838729248248855}
light 10493 {'light': 0.03838729248248855}
light 10503 {'light': 0.03838729248248855}
light 10629 {'light': 0.03838729248248855}
light 10662 {'light': 0.03838729248248855}
light 10701 {'light': 0.03838729248248855}
light 10774 {'light': 0.03838729248248855}
light 10788 {'light': 0.03838729248248855}
light 10886 {'light': 0.03838729248248855}
light 10910 {'light': 0.03838729248248855}
light 10938 {'light': 0.03838729248248855}
light 11024 {'light': 0.03838729248248855}
light 11036 {'light': 0.03838729248248855}
light 11112 {'light': 0.03838729248248855}
light 11121 {'light': 0.03838729248248855}
light 11129 {'light': 0.03838729248248855}
light 11164 {'light': 0.03838729248248855}
light 11182 {'light': 0.03838729248248855}
light 11215 {'light': 0.03838729248248855}
light 11260 {'light': 0.03838729248248855}
light 11372 {'light': 0.03838729248248855}
light 11549 {'light': 0.03838729248248855}
light 11590 {'light': 0.03838729248248855}
light 11622 {'light': 0.03838729248248855}
light 11646 {'light': 0.03838729248248855}
light 11652 {'light': 0.03838729248248855}
light 11657 {'light': 0.03838729248248855}
light 11659 {'light': 0.03838729248248855}
light 11722 {'light': 0.03838729248248855}
light 11740 {'light': 0.03838729248248855}
light 11743 {'light': 0.03838729248248855}
light 11745 {'light': 0.03838729248248855}
light 11750 {'light': 0.03838729248248855}
light 11782 {'light': 0.03838729248248855}
light 11788 {'light': 0.03838729248248855}
light 11802 {'light': 0.03838729248248855}
light 11813 {'light': 0.03838729248248855}
light 11833 {'light': 0.03838729248248855}
light 11881 {'light': 0.03838729248248855}
light 11884 {'light': 0.03838729248248855}
light 11886 {'light': 0.03838729248248855}
light 11887 {'light': 0.03838729248248855}
light 11894 {'light': 0.03838729248248855}
light 11906 {'light': 0.03838729248248855}
light 11945 {'light': 0.03838729248248855}
light 11966 {'light': 0.03838729248248855}
light 11976 {'light': 0.03838729248248855}
light 12012 {'light': 0.03838729248248855}
light 12018 {'light': 0.03838729248248855}
light 12023 {'light': 0.03838729248248855}
light 12053 {'light': 0.03838729248248855}
light 12063 {'light': 0.03838729248248855}
light 12075 {'light': 0.03838729248248855}
light 12081 {'light': 0.03838729248248855}
light 12086 {'light': 0.03838729248248855}
light 12098 {'light': 0.03838729248248855}
light 12099 {'light': 0.03838729248248855}
light 12125 {'light': 0.03838729248248855}
light 12168 {'light': 0.03838729248248855}
light 12169 {'light': 0.03838729248248855}
light 12174 {'light': 0.03838729248248855}
light 12182 {'light': 0.03838729248248855}
light 12183 {'light': 0.03838729248248855}
light 12191 {'light': 0.03838729248248855}
light 12198 {'light': 0.03838729248248855}
light 12224 {'light': 0.03838729248248855}
light 12231 {'light': 0.03838729248248855}
light 12239 {'light': 0.03838729248248855}
light 12276 {'light': 0.03838729248248855}
light 12308 {'light': 0.03838729248248855}
light 12352 {'light': 0.03838729248248855}
light 12354 {'light': 0.03838729248248855}
light 12361 {'light': 0.03838729248248855}
light 12363 {'light': 0.03838729248248855}
light 12364 {'light': 0.03838729248248855}
light 12376 {'light': 0.03838729248248855}
light 12387 {'light': 0.03838729248248855}
light 12390 {'light': 0.03838729248248855}
light 12402 {'light': 0.03838729248248855}
light 12418 {'light': 0.03838729248248855}
light 12448 {'light': 0.03838729248248855}
light 12455 {'light': 0.03838729248248855}
light 12460 {'light': 0.03838729248248855}
light 12481 {'light': 0.03838729248248855}
light 12521 {'light': 0.03838729248248855}
light 12530 {'light': 0.03838729248248855}
light 12558 {'light': 0.03838729248248855}
light 12559 {'light': 0.03838729248248855}
light 12566 {'light': 0.03838729248248855}
light 12570 {'light': 0.03838729248248855}
light 12581 {'light': 0.03838729248248855}
light 12593 {'light': 0.03838729248248855}
light 12616 {'light': 0.03838729248248855}
light 12622 {'light': 0.03838729248248855}
light 12625 {'light': 0.03838729248248855}
light 12645 {'light': 0.03838729248248855}
light 12711 {'light': 0.03838729248248855}
light 12712 {'light': 0.03838729248248855}
light 12714 {'light': 0.03838729248248855}
light 12715 {'light': 0.03838729248248855}
light 12747 {'light': 0.03838729248248855}
light 12798 {'light': 0.03838729248248855}
light 12860 {'light': 0.03838729248248855}
light 12864 {'light': 0.03838729248248855}
light 12946 {'light': 0.03838729248248855}
light 12976 {'light': 0.03838729248248855}
light 13014 {'light': 0.03838729248248855}
light 13015 {'light': 0.03838729248248855}
light 13018 {'light': 0.03838729248248855}
light 13063 {'light': 0.03838729248248855}
light 13080 {'light': 0.03838729248248855}
light 13081 {'light': 0.03838729248248855}
light 13128 {'light': 0.03838729248248855}
light 13241 {'light': 0.03838729248248855}
light 13258 {'light': 0.03838729248248855}
light 13265 {'light': 0.03838729248248855}
light 13294 {'light': 0.03838729248248855}
light 13367 {'light': 0.03838729248248855}
light 13431 {'light': 0.03838729248248855}
light 13508 {'light': 0.03838729248248855}
light 13592 {'light': 0.03838729248248855}
light 13593 {'light': 0.03838729248248855}
light 13630 {'light': 0.03838729248248855}
light 13673 {'light': 0.03838729248248855}
light 13697 {'light': 0.03838729248248855}
light 13722 {'light': 0.03838729248248855}
light 13812 {'light': 0.03838729248248855}
light 13820 {'light': 0.03838729248248855}
light 13886 {'light': 0.03838729248248855}
light 13907 {'light': 0.03838729248248855}
light 13918 {'light': 0.03838729248248855}
light 13924 {'light': 0.03838729248248855}
light 13927 {'light': 0.03838729248248855}
light 13943 {'light': 0.03838729248248855}
light 13952 {'light': 0.03838729248248855}
light 13967 {'light': 0.03838729248248855}
light 13971 {'light': 0.03838729248248855}
light 13979 {'light': 0.03838729248248855}
light 13982 {'light': 0.03838729248248855}
light 13985 {'light': 0.03838729248248855}
light 14032 {'light': 0.03838729248248855}
light 14036 {'light': 0.03838729248248855}
light 14037 {'light': 0.03838729248248855}
light 14075 {'light': 0.03838729248248855}
light 14079 {'light': 0.03838729248248855}
light 14092 {'light': 0.03838729248248855}
light 14098 {'light': 0.03838729248248855}
light 14100 {'light': 0.03838729248248855}
light 14102 {'light': 0.03838729248248855}
light 14118 {'light': 0.03838729248248855}
light 14121 {'light': 0.03838729248248855}
light 14138 {'light': 0.03838729248248855}
light 14141 {'light': 0.03838729248248855}
light 14143 {'light': 0.03838729248248855}
light 14144 {'light': 0.03838729248248855}
light 14151 {'light': 0.03838729248248855}
light 14154 {'light': 0.03838729248248855}
light 14155 {'light': 0.03838729248248855}
light 14171 {'light': 0.03838729248248855}
light 14187 {'light': 0.03838729248248855}
light 14194 {'light': 0.03838729248248855}
light 14200 {'light': 0.03838729248248855}
light 14208 {'light': 0.03838729248248855}
light 14227 {'light': 0.03838729248248855}
light 14229 {'light': 0.03838729248248855}
light 14237 {'light': 0.03838729248248855}
light 14238 {'light': 0.03838729248248855}
light 14240 {'light': 0.03838729248248855}
light 14242 {'light': 0.03838729248248855}
light 14260 {'light': 0.03838729248248855}
light 14263 {'light': 0.03838729248248855}
light 14273 {'light': 0.03838729248248855}
light 14278 {'light': 0.03838729248248855}
light 14281 {'light': 0.03838729248248855}
light 14285 {'light': 0.03838729248248855}
light 14314 {'light': 0.03838729248248855}
light 14333 {'light': 0.03838729248248855}
light 14343 {'light': 0.03838729248248855}
light 14362 {'light': 0.03838729248248855}
light 14386 {'light': 0.03838729248248855}
light 14392 {'light': 0.03838729248248855}
light 14394 {'light': 0.03838729248248855}
light 14395 {'light': 0.03838729248248855}
light 14403 {'light': 0.03838729248248855}
light 14408 {'light': 0.03838729248248855}
light 14418 {'light': 0.03838729248248855}
light 14425 {'light': 0.03838729248248855}
light 14437 {'light': 0.03838729248248855}
light 14479 {'light': 0.03838729248248855}
light 14494 {'light': 0.03838729248248855}
light 14530 {'light': 0.03838729248248855}
light 14531 {'light': 0.03838729248248855}
light 14542 {'light': 0.03838729248248855}
light 14544 {'light': 0.03838729248248855}
light 14546 {'light': 0.03838729248248855}
light 14556 {'light': 0.03838729248248855}
light 14557 {'light': 0.03838729248248855}
light 14558 {'light': 0.03838729248248855}
light 14561 {'light': 0.03838729248248855}
light 14562 {'light': 0.03838729248248855}
light 14564 {'light': 0.03838729248248855}
light 14565 {'light': 0.03838729248248855}
light 14566 {'light': 0.03838729248248855}
light 14569 {'light': 0.03838729248248855}
light 14571 {'light': 0.03838729248248855}
light 14577 {'light': 0.03838729248248855}
light 14601 {'light': 0.03838729248248855}
light 14630 {'light': 0.03838729248248855}
light 14654 {'light': 0.03838729248248855}
light 14657 {'light': 0.03838729248248855}
light 14674 {'light': 0.03838729248248855}
light 14697 {'light': 0.03838729248248855}
light 14775 {'light': 0.03838729248248855}
light 14829 {'light': 0.03838729248248855}
light 14853 {'light': 0.03838729248248855}
light 14863 {'light': 0.03838729248248855}
light 14867 {'light': 0.03838729248248855}
light 14889 {'light': 0.03838729248248855}
light 14895 {'light': 0.03838729248248855}
light 14900 {'light': 0.03838729248248855}
light 14912 {'light': 0.03838729248248855}
light 14914 {'light': 0.03838729248248855}
light 14929 {'light': 0.03838729248248855}
light 14945 {'light': 0.03838729248248855}
light 14967 {'light': 0.03838729248248855}
light 15033 {'light': 0.03838729248248855}
light 15044 {'light': 0.03838729248248855}
light 15090 {'light': 0.03838729248248855}
light 15095 {'light': 0.03838729248248855}
light 15109 {'light': 0.03838729248248855}
light 15134 {'light': 0.03838729248248855}
light 15220 {'light': 0.03838729248248855}
light 15235 {'light': 0.03838729248248855}
light 15243 {'light': 0.03838729248248855}
light 15263 {'light': 0.03838729248248855}
light 15269 {'light': 0.03838729248248855}
light 15275 {'light': 0.03838729248248855}
light 15305 {'light': 0.03838729248248855}
light 15311 {'light': 0.03838729248248855}
light 15319 {'light': 0.03838729248248855}
light 15339 {'light': 0.03838729248248855}
light 15341 {'light': 0.03838729248248855}
light 15351 {'light': 0.03838729248248855}
light 15361 {'light': 0.03838729248248855}
light 15377 {'light': 0.03838729248248855}
light 15380 {'light': 0.03838729248248855}
light 15447 {'light': 0.03838729248248855}
light 15464 {'light': 0.03838729248248855}
light 15487 {'light': 0.03838729248248855}
light 15492 {'light': 0.03838729248248855}
light 15497 {'light': 0.03838729248248855}
light 15510 {'light': 0.03838729248248855}
light 15514 {'light': 0.03838729248248855}
light 15520 {'light': 0.03838729248248855}
light 15536 {'light': 0.03838729248248855}
light 15578 {'light': 0.03838729248248855}
light 15598 {'light': 0.03838729248248855}
light 15703 {'light': 0.03838729248248855}
light 15722 {'light': 0.03838729248248855}
light 15784 {'light': 0.03838729248248855}
light 15789 {'light': 0.03838729248248855}
light 15815 {'light': 0.03838729248248855}
light 15828 {'light': 0.03838729248248855}
light 15842 {'light': 0.03838729248248855}
light 15903 {'light': 0.03838729248248855}
light 15910 {'light': 0.03838729248248855}
light 15913 {'light': 0.03838729248248855}
light 15919 {'light': 0.03838729248248855}
light 15923 {'light': 0.03838729248248855}
light 15935 {'light': 0.03838729248248855}
light 15969 {'light': 0.03838729248248855}
light 15977 {'light': 0.03838729248248855}
light 15984 {'light': 0.03838729248248855}
light 15992 {'light': 0.03838729248248855}
light 15994 {'light': 0.03838729248248855}
light 16023 {'light': 0.03838729248248855}
light 16061 {'light': 0.03838729248248855}
light 16073 {'light': 0.03838729248248855}
light 16080 {'light': 0.03838729248248855}
light 16081 {'light': 0.03838729248248855}
light 16097 {'light': 0.03838729248248855}
light 16121 {'light': 0.03838729248248855}
light 16133 {'light': 0.03838729248248855}
light 16134 {'light': 0.03838729248248855}
light 16167 {'light': 0.03838729248248855}
light 16179 {'light': 0.03838729248248855}
light 16186 {'light': 0.03838729248248855}
light 16202 {'light': 0.03838729248248855}
light 16300 {'light': 0.03838729248248855}
light 16353 {'light': 0.03838729248248855}
light 16517 {'light': 0.03838729248248855}
light 16529 {'light': 0.03838729248248855}
light 16558 {'light': 0.03838729248248855}
light 16561 {'light': 0.03838729248248855}
light 16645 {'light': 0.03838729248248855}
light 16655 {'light': 0.03838729248248855}
light 16696 {'light': 0.03838729248248855}
light 16721 {'light': 0.03838729248248855}
light 16724 {'light': 0.03838729248248855}
light 16726 {'light': 0.03838729248248855}
light 16736 {'light': 0.03838729248248855}
light 16737 {'light': 0.03838729248248855}
light 16743 {'light': 0.03838729248248855}
light 16846 {'light': 0.03838729248248855}
light 16880 {'light': 0.03838729248248855}
light 16890 {'light': 0.03838729248248855}
light 16929 {'light': 0.03838729248248855}
light 16958 {'light': 0.03838729248248855}
light 17003 {'light': 0.03838729248248855}
light 17004 {'light': 0.03838729248248855}
light 17080 {'light': 0.03838729248248855}
light 17091 {'light': 0.03838729248248855}
light 17096 {'light': 0.03838729248248855}
light 17099 {'light': 0.03838729248248855}
light 17109 {'light': 0.03838729248248855}
light 17167 {'light': 0.03838729248248855}
light 17210 {'light': 0.03838729248248855}
light 17251 {'light': 0.03838729248248855}
light 17294 {'light': 0.03838729248248855}
light 17320 {'light': 0.03838729248248855}
light 17361 {'light': 0.03838729248248855}
light 17365 {'light': 0.03838729248248855}
light 17367 {'light': 0.03838729248248855}
light 17378 {'light': 0.03838729248248855}
light 17402 {'light': 0.03838729248248855}
light 17416 {'light': 0.03838729248248855}
light 17479 {'light': 0.03838729248248855}
light 17502 {'light': 0.03838729248248855}
light 17503 {'light': 0.03838729248248855}
light 17508 {'light': 0.03838729248248855}
light 17525 {'light': 0.03838729248248855}
light 17641 {'light': 0.03838729248248855}
light 17788 {'light': 0.03838729248248855}
light 17839 {'light': 0.03838729248248855}
light 17898 {'light': 0.03838729248248855}
light 17908 {'light': 0.03838729248248855}
light 17909 {'light': 0.03838729248248855}
light 17955 {'light': 0.03838729248248855}
light 18006 {'light': 0.03838729248248855}
light 18039 {'light': 0.03838729248248855}
light 18045 {'light': 0.03838729248248855}
light 18113 {'light': 0.03838729248248855}
light 18152 {'light': 0.03838729248248855}
light 18212 {'light': 0.03838729248248855}
light 18233 {'light': 0.03838729248248855}
light 18253 {'light': 0.03838729248248855}
light 18258 {'light': 0.03838729248248855}
light 18263 {'light': 0.03838729248248855}
light 18281 {'light': 0.03838729248248855}
light 18292 {'light': 0.03838729248248855}
light 18328 {'light': 0.03838729248248855}
light 18344 {'light': 0.03838729248248855}
light 18353 {'light': 0.03838729248248855}
light 18354 {'light': 0.03838729248248855}
light 18358 {'light': 0.03838729248248855}
light 18374 {'light': 0.03838729248248855}
light 18377 {'light': 0.03838729248248855}
light 18381 {'light': 0.03838729248248855}
light 18382 {'light': 0.03838729248248855}
light 18385 {'light': 0.03838729248248855}
light 18396 {'light': 0.03838729248248855}
light 18399 {'light': 0.03838729248248855}
light 18419 {'light': 0.03838729248248855}
light 18426 {'light': 0.03838729248248855}
light 18436 {'light': 0.03838729248248855}
light 18455 {'light': 0.03838729248248855}
light 18468 {'light': 0.03838729248248855}
light 18473 {'light': 0.03838729248248855}
light 18481 {'light': 0.03838729248248855}
light 18483 {'light': 0.03838729248248855}
light 18497 {'light': 0.03838729248248855}
light 18517 {'light': 0.03838729248248855}
light 18528 {'light': 0.03838729248248855}
light 18529 {'light': 0.03838729248248855}
light 18532 {'light': 0.03838729248248855}
light 18575 {'light': 0.03838729248248855}
light 18579 {'light': 0.03838729248248855}
light 18582 {'light': 0.03838729248248855}
light 18600 {'light': 0.03838729248248855}
light 18614 {'light': 0.03838729248248855}
light 18620 {'light': 0.03838729248248855}
light 18622 {'light': 0.03838729248248855}
light 18633 {'light': 0.03838729248248855}
light 18637 {'light': 0.03838729248248855}
light 18647 {'light': 0.03838729248248855}
light 18672 {'light': 0.03838729248248855}
light 18708 {'light': 0.03838729248248855}
light 18730 {'light': 0.03838729248248855}
light 18759 {'light': 0.03838729248248855}
light 18770 {'light': 0.03838729248248855}
light 18783 {'light': 0.03838729248248855}
light 18802 {'light': 0.03838729248248855}
temperatur 162 {'temperatur': 0.006576133447390932}
temperatur 1606 {'temperatur': 0.006576133447390932}
temperatur 2769 {'temperatur': 0.006576133447390932}
temperatur 3278 {'temperatur': 0.006576133447390932}
temperatur 3316 {'temperatur': 0.006576133447390932}
temperatur 3350 {'temperatur': 0.006576133447390932}
temperatur 3357 {'temperatur': 0.006576133447390932}
temperatur 3444 {'temperatur': 0.006576133447390932}
temperatur 3479 {'temperatur': 0.006576133447390932}
temperatur 3503 {'temperatur': 0.006576133447390932}
temperatur 3662 {'temperatur': 0.006576133447390932}
temperatur 3669 {'temperatur': 0.006576133447390932}
temperatur 3685 {'temperatur': 0.006576133447390932}
temperatur 3694 {'temperatur': 0.006576133447390932}
temperatur 3711 {'temperatur': 0.006576133447390932}
temperatur 3714 {'temperatur': 0.006576133447390932}
temperatur 3783 {'temperatur': 0.006576133447390932}
temperatur 4468 {'temperatur': 0.006576133447390932}
temperatur 6706 {'temperatur': 0.006576133447390932}
temperatur 6811 {'temperatur': 0.006576133447390932}
temperatur 6817 {'temperatur': 0.006576133447390932}
temperatur 6984 {'temperatur': 0.006576133447390932}
temperatur 7009 {'temperatur': 0.006576133447390932}
temperatur 7365 {'temperatur': 0.006576133447390932}
temperatur 7434 {'temperatur': 0.006576133447390932}
temperatur 7590 {'temperatur': 0.006576133447390932}
temperatur 7751 {'temperatur': 0.006576133447390932}
temperatur 7820 {'temperatur': 0.006576133447390932}
temperatur 8149 {'temperatur': 0.006576133447390932}
temperatur 8390 {'temperatur': 0.006576133447390932}
temperatur 8800 {'temperatur': 0.006576133447390932}
temperatur 8980 {'temperatur': 0.006576133447390932}
temperatur 10876 {'temperatur': 0.006576133447390932}
temperatur 11647 {'temperatur': 0.006576133447390932}
temperatur 11658 {'temperatur': 0.006576133447390932}
temperatur 11688 {'temperatur': 0.006576133447390932}
temperatur 11708 {'temperatur': 0.006576133447390932}
temperatur 11715 {'temperatur': 0.006576133447390932}
temperatur 11802 {'temperatur': 0.006576133447390932}
temperatur 11828 {'temperatur': 0.006576133447390932}
temperatur 11855 {'temperatur': 0.006576133447390932}
temperatur 11886 {'temperatur': 0.006576133447390932}
temperatur 11894 {'temperatur': 0.006576133447390932}
temperatur 11917 {'temperatur': 0.006576133447390932}
temperatur 11920 {'temperatur': 0.006576133447390932}
temperatur 11932 {'temperatur': 0.006576133447390932}
temperatur 11953 {'temperatur': 0.006576133447390932}
temperatur 11966 {'temperatur': 0.006576133447390932}
temperatur 11977 {'temperatur': 0.006576133447390932}
temperatur 12042 {'temperatur': 0.006576133447390932}
temperatur 12169 {'temperatur': 0.006576133447390932}
temperatur 12307 {'temperatur': 0.006576133447390932}
temperatur 12318 {'temperatur': 0.002632687447346251}
temperatur 12324 {'temperatur': 0.006576133447390932}
temperatur 12328 {'temperatur': 0.006576133447390932}
temperatur 12342 {'temperatur': 0.006576133447390932}
temperatur 12344 {'temperatur': 0.006576133447390932}
temperatur 12366 {'temperatur': 0.006576133447390932}
temperatur 12400 {'temperatur': 0.006576133447390932}
temperatur 12441 {'temperatur': 0.006576133447390932}
temperatur 12497 {'temperatur': 0.006576133447390932}
temperatur 12587 {'temperatur': 0.006576133447390932}
temperatur 12600 {'temperatur': 0.006576133447390932}
temperatur 12845 {'temperatur': 0.006576133447390932}
temperatur 12850 {'temperatur': 0.006576133447390932}
temperatur 12871 {'temperatur': 0.006576133447390932}
temperatur 12899 {'temperatur': 0.006576133447390932}
temperatur 13000 {'temperatur': 0.006576133447390932}
temperatur 13063 {'temperatur': 0.006576133447390932}
temperatur 13080 {'temperatur': 0.006576133447390932}
temperatur 13083 {'temperatur': 0.006576133447390932}
temperatur 13325 {'temperatur': 0.006576133447390932}
temperatur 13327 {'temperatur': 0.006576133447390932}
temperatur 13465 {'temperatur': 0.006576133447390932}
temperatur 13473 {'temperatur': 0.006576133447390932}
temperatur 13499 {'temperatur': 0.006576133447390932}
temperatur 13581 {'temperatur': 0.006576133447390932}
temperatur 13592 {'temperatur': 0.006576133447390932}
temperatur 13674 {'temperatur': 0.006576133447390932}
temperatur 13706 {'temperatur': 0.006576133447390932}
temperatur 13722 {'temperatur': 0.006576133447390932}
temperatur 13777 {'temperatur': 0.006576133447390932}
temperatur 13883 {'temperatur': 0.006576133447390932}
temperatur 13991 {'temperatur': 0.006576133447390932}
temperatur 14032 {'temperatur': 0.006576133447390932}
temperatur 14093 {'temperatur': 0.006576133447390932}
temperatur 14178 {'temperatur': 0.006576133447390932}
temperatur 14187 {'temperatur': 0.006576133447390932}
temperatur 14218 {'temperatur': 0.006576133447390932}
temperatur 14221 {'temperatur': 0.006576133447390932}
temperatur 14222 {'temperatur': 0.006576133447390932}
temperatur 14240 {'temperatur': 0.006576133447390932}
temperatur 14242 {'temperatur': 0.006576133447390932}
temperatur 14259 {'temperatur': 0.006576133447390932}
temperatur 14263 {'temperatur': 0.006576133447390932}
temperatur 14273 {'temperatur': 0.006576133447390932}
temperatur 14274 {'temperatur': 0.006576133447390932}
temperatur 14301 {'temperatur': 0.006576133447390932}
temperatur 14302 {'temperatur': 0.006576133447390932}
temperatur 14303 {'temperatur': 0.006576133447390932}
temperatur 14331 {'temperatur': 0.006576133447390932}
temperatur 14340 {'temperatur': 0.006576133447390932}
temperatur 14343 {'temperatur': 0.006576133447390932}
temperatur 14354 {'temperatur': 0.006576133447390932}
temperatur 14359 {'temperatur': 0.006576133447390932}
temperatur 14362 {'temperatur': 0.006576133447390932}
temperatur 14394 {'temperatur': 0.006576133447390932}
temperatur 14447 {'temperatur': 0.006576133447390932}
temperatur 14455 {'temperatur': 0.006576133447390932}
temperatur 14537 {'temperatur': 0.006576133447390932}
temperatur 14722 {'temperatur': 0.006576133447390932}
temperatur 16003 {'temperatur': 0.006576133447390932}
temperatur 16082 {'temperatur': 0.006576133447390932}
temperatur 16248 {'temperatur': 0.006576133447390932}
temperatur 16687 {'temperatur': 0.006576133447390932}
temperatur 17808 {'temperatur': 0.006576133447390932}
temperatur 17898 {'temperatur': 0.006576133447390932}
temperatur 18006 {'temperatur': 0.006576133447390932}
temperatur 18117 {'temperatur': 0.006576133447390932}
temperatur 18125 {'temperatur': 0.006576133447390932}
temperatur 18423 {'temperatur': 0.006576133447390932}
temperatur 18749 {'temperatur': 0.006576133447390932}
temperatur 18802 {'temperatur': 0.006576133447390932}
temperatur 18811 {'temperatur': 0.006576133447390932}
temperatur 989 {'temperatur': 0.002632687447346251}
temperatur 1013 {'temperatur': 0.002632687447346251}
temperatur 1201 {'temperatur': 0.002632687447346251}
temperatur 1314 {'temperatur': 0.002632687447346251}
temperatur 1451 {'temperatur': 0.002632687447346251}
temperatur 1463 {'temperatur': 0.002632687447346251}
temperatur 1498 {'temperatur': 0.002632687447346251}
temperatur 2858 {'temperatur': 0.002632687447346251}
temperatur 3164 {'temperatur': 0.002632687447346251}
temperatur 3274 {'temperatur': 0.002632687447346251}
temperatur 4328 {'temperatur': 0.002632687447346251}
temperatur 5614 {'temperatur': 0.002632687447346251}
temperatur 5616 {'temperatur': 0.002632687447346251}
temperatur 5642 {'temperatur': 0.002632687447346251}
temperatur 5691 {'temperatur': 0.002632687447346251}
temperatur 6237 {'temperatur': 0.002632687447346251}
temperatur 6328 {'temperatur': 0.002632687447346251}
temperatur 6920 {'temperatur': 0.002632687447346251}
temperatur 7006 {'temperatur': 0.002632687447346251}
temperatur 7245 {'temperatur': 0.002632687447346251}
temperatur 7258 {'temperatur': 0.002632687447346251}
temperatur 8707 {'temperatur': 0.002632687447346251}
temperatur 9652 {'temperatur': 0.002632687447346251}
temperatur 10112 {'temperatur': 0.002632687447346251}
temperatur 10117 {'temperatur': 0.002632687447346251}
temperatur 10133 {'temperatur': 0.002632687447346251}
temperatur 10516 {'temperatur': 0.002632687447346251}
temperatur 10523 {'temperatur': 0.002632687447346251}
temperatur 10538 {'temperatur': 0.002632687447346251}
temperatur 10542 {'temperatur': 0.002632687447346251}
temperatur 11086 {'temperatur': 0.002632687447346251}
temperatur 11431 {'temperatur': 0.002632687447346251}
temperatur 11677 {'temperatur': 0.002632687447346251}
temperatur 12173 {'temperatur': 0.002632687447346251}
temperatur 12317 {'temperatur': 0.002632687447346251}
temperatur 12319 {'temperatur': 0.002632687447346251}
temperatur 12502 {'temperatur': 0.002632687447346251}
temperatur 12723 {'temperatur': 0.002632687447346251}
temperatur 12730 {'temperatur': 0.002632687447346251}
temperatur 12750 {'temperatur': 0.002632687447346251}
temperatur 13723 {'temperatur': 0.002632687447346251}
temperatur 14439 {'temperatur': 0.002632687447346251}
temperatur 14885 {'temperatur': 0.002632687447346251}
temperatur 15176 {'temperatur': 0.002632687447346251}
temperatur 15612 {'temperatur': 0.002632687447346251}
temperatur 16375 {'temperatur': 0.002632687447346251}
temperatur 16626 {'temperatur': 0.002632687447346251}
temperatur 16788 {'temperatur': 0.002632687447346251}
temperatur 17142 {'temperatur': 0.002632687447346251}
temperatur 17503 {'temperatur': 0.002632687447346251}
sabana 989 {'sabana': 0.0}
sabana 1013 {'sabana': 0.0}
sabana 1201 {'sabana': 0.0}
sabana 1314 {'sabana': 0.0}
sabana 1451 {'sabana': 0.0}
sabana 1463 {'sabana': 0.0}
sabana 1498 {'sabana': 0.0}
sabana 2858 {'sabana': 0.0}
sabana 3164 {'sabana': 0.0}
sabana 3274 {'sabana': 0.0}
sabana 4328 {'sabana': 0.0}
sabana 5614 {'sabana': 0.0}
sabana 5616 {'sabana': 0.0}
sabana 5642 {'sabana': 0.0}
sabana 5691 {'sabana': 0.0}
sabana 6237 {'sabana': 0.0}
sabana 6328 {'sabana': 0.0}
sabana 6920 {'sabana': 0.0}
sabana 7006 {'sabana': 0.0}
sabana 7245 {'sabana': 0.0}
sabana 7258 {'sabana': 0.0}
sabana 8707 {'sabana': 0.0}
sabana 9652 {'sabana': 0.0}
sabana 10112 {'sabana': 0.0}
sabana 10117 {'sabana': 0.0}
sabana 10133 {'sabana': 0.0}
sabana 10516 {'sabana': 0.0}
sabana 10523 {'sabana': 0.0}
sabana 10538 {'sabana': 0.0}
sabana 10542 {'sabana': 0.0}
sabana 11086 {'sabana': 0.0}
sabana 11431 {'sabana': 0.0}
sabana 11677 {'sabana': 0.0}
sabana 12173 {'sabana': 0.0}
sabana 12317 {'sabana': 0.0}
sabana 12318 {'sabana': 0.0}
sabana 12319 {'sabana': 0.0}
sabana 12502 {'sabana': 0.0}
sabana 12723 {'sabana': 0.0}
sabana 12730 {'sabana': 0.0}
sabana 12750 {'sabana': 0.0}
sabana 13723 {'sabana': 0.0}
sabana 14439 {'sabana': 0.0}
sabana 14885 {'sabana': 0.0}
sabana 15176 {'sabana': 0.0}
sabana 15612 {'sabana': 0.0}
sabana 16375 {'sabana': 0.0}
sabana 16626 {'sabana': 0.0}
sabana 16788 {'sabana': 0.0}
sabana 17142 {'sabana': 0.0}
sabana 17503 {'sabana': 0.0}
